*NODE
1, 0, 0, 0
2, 100, 0, 0
3, 500, 0, 0
4, 500, -500, 0
5, 0, -500, 0
6, 9.9999999999616, 0, 0
7, 19.999999999914, 0, 0
8, 29.999999999862, 0, 0
9, 39.99999999984, 0, 0
10, 49.999999999824, 0, 0
11, 59.999999999807, 0, 0
12, 69.999999999836, 0, 0
13, 79.999999999891, 0, 0
14, 89.999999999945, 0, 0
15, 4.9999999999801, 0, 0
16, 14.99999999994, 0, 0
17, 24.999999999888, 0, 0
18, 34.999999999849, 0, 0
19, 44.999999999832, 0, 0
20, 54.999999999815, 0, 0
21, 64.999999999818, 0, 0
22, 74.999999999865, 0, 0
23, 84.999999999907, 0, 0
24, 94.999999999976, 0, 0
25, 109.92991508494, 0, 0
26, 120.84585738099, 0, 0
27, 132.84574650073, 0, 0
28, 146.03721193491, 0, 0
29, 160.53857932027, 0, 0
30, 176.47992030014, 0, 0
31, 194.00422169008, 0, 0
32, 213.26867284755, 0, 0
33, 234.44606663989, 0, 0
34, 257.72635345183, 0, 0
35, 283.31835537655, 0, 0
36, 311.4516207067, 0, 0
37, 342.3784918633, 0, 0
38, 376.3763775171, 0, 0
39, 413.75022381626, 0, 0
40, 454.835264685, 0, 0
41, 104.96495754247, 0, 0
42, 115.38788623296, 0, 0
43, 126.84580194086, 0, 0
44, 139.44147921782, 0, 0
45, 153.28789562759, 0, 0
46, 168.5092498102, 0, 0
47, 185.24207099511, 0, 0
48, 203.63644726882, 0, 0
49, 223.85736974371, 0, 0
50, 246.08621004586, 0, 0
51, 270.52235441419, 0, 0
52, 297.3849880416, 0, 0
53, 326.915056285, 0, 0
54, 359.37743469021, 0, 0
55, 395.06330066667, 0, 0
56, 434.29274425062, 0, 0
57, 477.4176323425, 0, 0
58, 500, -49.999999999983, 0
59, 500, -99.999999999897, 0
60, 500, -149.99999999984, 0
61, 500, -199.99999999986, 0
62, 500, -249.99999999988, 0
63, 500, -299.99999999993, 0
64, 500, -349.99999999995, 0
65, 500, -399.99999999996, 0
66, 500, -449.99999999998, 0
67, 500, -24.999999999986, 0
68, 500, -74.999999999946, 0
69, 500, -124.99999999987, 0
70, 500, -174.99999999985, 0
71, 500, -224.99999999987, 0
72, 500, -274.9999999999, 0
73, 500, -324.99999999994, 0
74, 500, -374.99999999997, 0
75, 500, -424.99999999998, 0
76, 500, -475, 0
77, 450, -500, 0
78, 400.00000000001, -500, 0
79, 350.00000000001, -500, 0
80, 300.00000000001, -500, 0
81, 250.00000000001, -500, 0
82, 199.99999999999, -500, 0
83, 149.99999999999, -500, 0
84, 99.999999999993, -500, 0
85, 49.999999999997, -500, 0
86, 475, -500, 0
87, 425.00000000001, -500, 0
88, 375.00000000002, -500, 0
89, 325.00000000002, -500, 0
90, 275.00000000002, -500, 0
91, 224.99999999997, -500, 0
92, 175, -500, 0
93, 124.99999999999, -500, 0
94, 74.999999999987, -500, 0
95, 25.000000000011, -500, 0
96, 0, -453.88958513056, 0
97, 0, -411.18103471592, 0
98, 0, -371.62338132951, 0
99, 0, -334.98415921334, 0
100, 0, -301.04805806673, 0
101, 0, -269.61565091025, 0
102, 0, -240.50222015975, 0
103, 0, -213.53668371337, 0
104, 0, -188.56057421222, 0
105, 0, -165.4271172382, 0
106, 0, -144.00036843809, 0
107, 0, -124.15441539416, 0
108, 0, -105.7726305203, 0
109, 0, -88.746993432781, 0
110, 0, -72.977453017318, 0
111, 0, -58.371335397439, 0
112, 0, -44.842808337758, 0
113, 0, -32.312371659404, 0
114, 0, -20.706387993359, 0
115, 0, -9.9566537291882, 0
116, 0, -476.94479256527, 0
117, 0, -432.53530992324, 0
118, 0, -391.40220802271, 0
119, 0, -353.30377027142, 0
120, 0, -318.01610864005, 0
121, 0, -285.3318544885, 0
122, 0, -255.05893553503, 0
123, 0, -227.01945193657, 0
124, 0, -201.04862896278, 0
125, 0, -176.99384572521, 0
126, 0, -154.71374283815, 0
127, 0, -134.07739191613, 0
128, 0, -114.96352295723, 0
129, 0, -97.259811976544, 0
130, 0, -80.862223225055, 0
131, 0, -65.674394207376, 0
132, 0, -51.607071867602, 0
133, 0, -38.57758999859, 0
134, 0, -26.509379826377, 0
135, 0, -15.331520861274, 0
136, 0, -4.978326864593, 0
137, 244.76930150451, -19.46563085202, 0
138, 152.73057022148, -13.678004764283, 0
139, 24.623863292156, -254.03766794733, 0
140, 103.99942008196, -11.119074876338, 0
141, 17.724907050935, -155.01822749972, 0
142, 326.48478928184, -25.005576120062, 0
143, 12.393083798011, -100.1461259913, 0
144, 74.99999999986, -8.4211722241521, 0
145, 226.57349702623, -457.52331866586, 0
146, 457.44795462255, -223.73332862433, 0
147, 44.87494192092, -9.4504141610098, 0
148, 10.472594309404, -50.92610643645, 0
149, 28.871200509096, -354.32866253021, 0
150, 393.8940468261, -31.126208933962, 0
151, 19.26736453823, -200.71566646815, 0
152, 181.94009839425, -16.271796202544, 0
153, 456.69872981076, -324.99999999994, 0
154, 326.04737264401, -456.49008495399, 0
155, 127.83345886192, -9.4936006495219, 0
156, 24.815522011, -9.0648494841362, 0
157, 126.59156601355, -460.17983701329, 0
158, 454.73644431518, -126.58443285272, 0
159, 9.6338577142824, -26.5612973526, 0
160, 457.98315887879, -422.69404848099, 0
161, 36.045937981391, -431.73714889261, 0
162, 458.44484012792, -176.98719241702, 0
163, 418.328871746, -201.75948742832, 0
164, 416.61957224735, -245.45938033433, 0
165, 378.75047683682, -222.91361017689, 0
166, 377.51985828925, -265.89678113149, 0
167, 340.8535376267, -243.17750996866, 0
168, 341.94780035276, -201.74772846291, 0
169, 306.68762766052, -221.12354458817, 0
170, 307.79006895295, -181.35050571457, 0
171, 274.40922057451, -199.85782147548, 0
172, 272.69571236631, -238.15130806114, 0
173, 242.80145823583, -215.20459355034, 0
174, 243.62515699751, -180.87298870363, 0
175, 213.04996367264, -196.55345243299, 0
176, 214.62114091145, -233.40195818327, 0
177, 213.66349242196, -163.68608427214, 0
178, 185.38209051104, -179.96498863073, 0
179, 186.36822528432, -148.73144145974, 0
180, 160.38709649791, -163.68995719558, 0
181, 161.91261527772, -134.71454940074, 0
182, 184.78869425865, -116.51823012722, 0
183, 138.53031493342, -146.51432294085, 0
184, 139.40888383038, -121.2366670363, 0
185, 137.01712635459, -171.51726671583, 0
186, 242.51133344838, -148.20242178814, 0
187, 117.25449765618, -131.43971523065, 0
188, 119.60673524968, -108.3771355024, 0
189, 139.20708956744, -97.897807700602, 0
190, 120.76863008772, -86.193230747448, 0
191, 102.31536864117, -96.355458324044, 0
192, 103.54344874385, -75.929692161722, 0
193, 86.505206668616, -84.802991202596, 0
194, 85.218099554246, -103.28460727341, 0
195, 339.34204960703, -286.3304449902, 0
196, 87.023590924237, -66.651171212362, 0
197, 71.864641312707, -74.690520758719, 0
198, 72.044393048681, -58.468370160497, 0
199, 341.41152776575, -162.51582913754, 0
200, 139.05935244915, -75.767748553425, 0
201, 100.69269895601, -58.061123503567, 0
202, 57.949316989525, -65.849244498269, 0
203, 59.031861432076, -50.480728873007, 0
204, 56.912725552608, -81.901689200391, 0
205, 71.759296944466, -43.469365578601, 0
206, 43.428359626163, -72.875037222815, 0
207, 60.131982579532, -36.19464583473, 0
208, 47.217840892147, -42.83565889785, 0
209, 308.8703028085, -143.97480056374, 0
210, 340.48287816642, -125.24784948219, 0
211, 309.76944775409, -107.76207643573, 0
212, 156.98823594705, -86.30819332716, 0
213, 156.79049363453, -65.347202917451, 0
214, 174.84217193074, -75.45901318135, 0
215, 139.84233039311, -55.108480063899, 0
216, 340.32411651197, -89.81180434485, 0
217, 371.82921140541, -107.16242870967, 0
218, 174.74470438166, -54.361675837409, 0
219, 192.83011060407, -64.743422529601, 0
220, 376.00293312531, -309.57902545394, 0
221, 337.12099138694, -329.95738663419, 0
222, 374.30649927385, -352.98851199865, 0
223, 300.25006673902, -306.05719100172, 0
224, 298.30417121265, -349.60833306034, 0
225, 261.96901573171, -326.23891993446, 0
226, 260.15379242986, -368.98175268577, 0
227, 224.86450743235, -345.10719881393, 0
228, 227.17830008838, -304.3601701505, 0
229, 190.25031836381, -323.00901101653, 0
230, 186.64545993153, -361.14170964449, 0
231, 153.85297179683, -340.11261700964, 0
232, 156.72261954095, -302.09999152778, 0
233, 122.19262559276, -318.37138493566, 0
234, 125.10879681211, -282.07505745403, 0
235, 118.14047375335, -355.78145427011, 0
236, 93.051294297866, -296.09351906261, 0
237, 96.716833531339, -262.47025731385, 0
238, 126.20673939992, -248.27375088796, 0
239, 98.649217132611, -230.85856355041, 0
240, 42.302102881833, -88.869089363372, 0
241, 55.56313373344, -98.754431323366, 0
242, 40.446351367787, -106.08871550372, 0
243, 54.830933791359, -116.76525684064, 0
244, 37.63095780116, -125.14807640794, 0
245, 53.768875548741, -136.32208933529, 0
246, 72.027317828588, -29.448780864159, 0
247, 83.514807624118, -36.386213141067, 0
248, 60.283603156259, -24.152061720777, 0
249, 310.04643209598, -72.231916666396, 0
250, 281.76233728427, -89.583543406129, 0
251, 280.93577790228, -58.066592908906, 0
252, 255.90483015535, -73.033294343539, 0
253, 71.881308373573, -244.44218469888, 0
254, 73.683822850078, -214.33384012502, 0
255, 98.624212769358, -201.22175162454, 0
256, 75.271630830048, -185.00951402331, 0
257, 254.67123094242, -101.58430578949, 0
258, 231.64961834665, -88.153529913023, 0
259, 232.55403659265, -60.855884274204, 0
260, 192.63162574874, -44.670193127277, 0
261, 82.484304666505, -24.156672879399, 0
262, 94.716592028422, -29.914638388874, 0
263, 28.976507334821, -78.963315993245, 0
264, 31.337967752824, -64.239155494041, 0
265, 192.94305494014, -87.408184800269, 0
266, 296.80555881161, -391.6559716533, 0
267, 70.679557426629, -127.81671290376, 0
268, 71.009775616455, -148.02101575861, 0
269, 51.548778283776, -157.21122617677, 0
270, 99.379578041715, -175.42278401919, 0
271, 46.579301730082, -226.85164095007, 0
272, 229.18403548895, -114.1212080516, 0
273, 374.15200894638, -65.280314595096, 0
274, 403.69348047284, -88.283285484397, 0
275, 404.4089941852, -126.84413500457, 0
276, 52.743976454993, -200.39003415396, 0
277, 92.569412262926, -136.95808490788, 0
278, 177.44029400166, -35.332228705058, 0
279, 157.88543759972, -42.777466589339, 0
280, 139.44449256039, -36.855814799215, 0
281, 124.8394149485, -45.07071725936, 0
282, 124.31000034851, -29.414721249058, 0
283, 120.08293527923, -63.68291947849, 0
284, 109.13821959136, -34.515467675118, 0
285, 111.30484388393, -22.042871070012, 0
286, 49.088058549425, -29.420878689344, 0
287, 37.64527314242, -33.960928792284, 0
288, 39.252190242954, -20.383844956508, 0
289, 28.331647969984, -26.720434790458, 0
290, 26.792256533813, -37.878857658492, 0
291, 255.23258987668, -414.78139202424, 0
292, 457.46180395786, -272.14889898791, 0
293, 16.451587416478, -70.387566728509, 0
294, 255.67009658377, -42.113488897879, 0
295, 280.9166631835, -29.12967027492, 0
296, 136.63751389265, -20.612038995402, 0
297, 97.296953802019, -43.164664556235, 0
298, 45.267981096083, -57.781233365878, 0
299, 275.85562178306, -163.5260257035, 0
300, 68.069683686952, -275.82266442113, 0
301, 61.860598142295, -307.6156723185, 0
302, 89.074056135663, -330.81652944094, 0
303, 83.828318243544, -366.3688414052, 0
304, 113.70493598578, -392.48805935197, 0
305, 34.230885882603, -284.31833814011, 0
306, 176.20110627927, -458.54354499263, 0
307, 201.17540215814, -418.89577265937, 0
308, 152.88589189877, -417.48349950299, 0
309, 91.853585894731, -17.079285002345, 0
310, 74.592237027891, -456.73478674335, 0
311, 124.88276079037, -216.83614838996, 0
312, 154.58068470935, -231.53266442204, 0
313, 151.97871083464, -194.30656418409, 0
314, 263.17215095394, -278.11798538404, 0
315, 70.966583123185, -405.55718998238, 0
316, 8.4654178949091, -15.545591523719, 0
317, 274.85756505918, -125.72010834734, 0
318, 17.668818913517, -131.62579709307, 0
319, 223.22428511094, -17.632366257525, 0
320, 378.99412662297, -182.27654998678, 0
321, 453.34562960687, -74.694303046533, 0
322, 192.52474291924, -280.8093375383, 0
323, 24.425064663274, -112.04109944087, 0
324, 32.627659138306, -391.40220802272, 0
325, 229.95099870542, -264.9942047683, 0
326, 9.5592809476502, -38.422854612069, 0
327, 357.4954432496, -26.602560358602, 0
328, 432.74859385484, -32.820279234843, 0
329, 335.36702676836, -53.162034825371, 0
330, 17.960740200624, -177.08439970578, 0
331, 303.97330594925, -262.57703042744, 0
332, 30.326566097059, -320.0651353072, 0
333, 449.79657532808, -370.84745950632, 0
334, 411.23856844596, -403.47795557775, 0
335, 418.44340914189, -454.18490417304, 0
336, 371.51454495259, -423.80770451197, 0
337, 150.86251377044, -27.752263087943, 0
338, 276.07393622212, -459.66732944322, 0
339, 202.89894684086, -15.272863664303, 0
340, 167.27269337735, -10.971163585978, 0
341, 160.84046329784, -109.53739021982, 0
342, 100.21529124166, -118.02488789443, 0
343, 35.279160893143, -144.5832390994, 0
344, 208.99088122428, -32.6190850521, 0
345, 156.61164951488, -266.76585511729, 0
346, 34.874125496914, -9.1210783894648, 0
347, 210.09881355356, -133.51423840773, 0
348, 54.979156986667, -8.4719741345664, 0
349, 64.996526164298, -8.275143931574, 0
350, 32.702320642859, -48.105266715407, 0
351, 85.30893098238, -8.0579487033454, 0
352, 115.38788623296, -8.8842002588612, 0
353, 183.53607663313, -213.82580322679, 0
354, 414.00456706647, -288.70068496905, 0
355, 334.29789974435, -371.25966812273, 0
356, 21.255602531587, -224.37397698406, 0
357, 19.293785234299, -19.136843602043, 0
358, 413.1789402131, -332.59231655659, 0
359, 51.412991809339, -17.793654792799, 0
360, 112.92245622347, -158.14988997064, 0
361, 303.6993705244, -40.040036867222, 0
362, 84.65202421245, -50.753133284734, 0
363, 150.07572719437, -377.84044826789, 0
364, 70.684535973601, -17.809735692527, 0
365, 371.96671539075, -143.14798606558, 0
366, 70.485377524988, -91.48985554668, 0
367, 181.60386915963, -247.19519150761, 0
368, 230.74250965929, -37.29841311275, 0
369, 221.61106992112, -384.70524077733, 0
370, 14.980981277214, -8.2928931750012, 0
371, 27.364831863556, -94.758729481403, 0
372, 211.59393394708, -52.534707101406, 0
373, 29.509610136411, -16.899104511547, 0
374, 419.71654983169, -161.06062941939, 0
375, 18.760834863978, -31.668118738453, 0
376, 211.5601638336, -75.931530020349, 0
377, 331.45442131848, -414.70316267651, 0
378, 12.733452231932, -83.606520490528, 0
379, 174.08052407488, -95.046202331163, 0
380, 208.21937320696, -104.82604510594, 0
381, 57.629868277916, -340.69023305543, 0
382, 139.21690028234, -8.7567288818414, 0
383, 373.2010653477, -466.8965387278, 0
384, 34.396600686529, -166.57371994022, 0
385, 94.608360914171, -7.3807687257752, 0
386, 51.856714507252, -177.4528540454, 0
387, 69.88683903896, -109.14690628633, 0
388, 117.85316805579, -187.38325486461, 0
389, 19.883664226536, -56.71408586848, 0
390, 102.62894799461, -428.99638057559, 0
391, 301.1741598146, -18.835056652441, 0
392, 49.239916477408, -257.65889834718, 0
393, 468.18589762934, -31.502916456272, 0
394, 67.507999099438, -165.10168222391, 0
395, 412.66482315049, -57.595688716882, 0
396, 87.853096259661, -157.81380111547, 0
397, 111.83467137628, -49.649444060009, 0
398, 250.30604123473, -122.40701099414, 0
399, 32.127635001856, -468.4723041533, 0
400, 18.439182612101, -44.536864785608, 0
401, 192.98794229248, -28.484116043447, 0
402, 120.36995430433, -17.642905658927, 0
403, 463.39745962154, -463.39745962154, 0
404, 35.548080336113, -188.8027761632, 0
405, 7.115518173252, -7.1249381961965, 0
406, 429.66996390637, -106.30784055091, 0
407, 54.371388610512, -371.52756353805, 0
408, 298.2081862085, -428.75374763721, 0
409, 9.514930171931, -61.936522507132, 0
410, 369.73502527272, -388.6872029315, 0
411, 10.220791843486, -114.88498459379, 0
412, 264.49139067239, -17.235076091957, 0
413, 177.76838887512, -393.80012313294, 0
414, 102.08031863619, -22.912225241909, 0
415, 79.999999999883, -15.33156313304, 0
416, 164.67429865061, -24.906016963065, 0
417, 84.995966894226, -119.08194841583, 0
418, 404.54177443271, -368.6937385266, 0
419, 245.52845918479, -244.07274117507, 0
420, 35.078865118201, -208.22681894389, 0
421, 60.471362818033, -15.300514054449, 0
422, 204.67518792394, -256.60017299937, 0
423, 42.431557017283, -38.398293845067, 0
424, 39.960080767503, -45.470462806628, 0
425, 35.17379689264, -41.033097753846, 0
426, 384.02302788624, -48.203261764529, 0
427, 365.82372609799, -45.941437476849, 0
428, 375.69474503785, -28.864384646282, 0
429, 172.88459350447, -171.82747291315, 0
430, 168.68040067284, -187.13577640741, 0
431, 156.18290366627, -178.99826068984, 0
432, 102.11807384993, -66.995407832644, 0
433, 110.38781711762, -60.872021491028, 0
434, 111.81319201154, -69.806305820106, 0
435, 112.15603941579, -81.061461454585, 0
436, 120.42578268348, -74.938075112969, 0
437, 17.115442941302, -276.96699452518, 0
438, 17.115442941302, -292.68319810342, 0
439, 22.054653622649, -14.10084654309, 0
440, 17.137383255756, -13.714868388522, 0
441, 19.898251644107, -8.6788713295687, 0
442, 148.70211142625, -167.60361195571, 0
443, 144.49791859461, -182.91191544996, 0
444, 188.86587459939, -101.96320746374, 0
445, 179.43460916677, -105.78221622919, 0
446, 183.51178950751, -91.227193565716, 0
447, 42.063566081937, -14.917129558759, 0
448, 37.063157869934, -14.752461672986, 0
449, 39.874533708917, -9.2857462752373, 0
450, 258.68444925378, -136.96126506774, 0
451, 246.40868734155, -135.30471639114, 0
452, 262.58180314696, -124.06355967074, 0
453, 134.91593944522, -190.84490952435, 0
454, 127.43514720519, -179.45026079022, 0
455, 12.311931646078, -261.82665942879, 0
456, 29.42737458738, -269.17800304372, 0
457, 98.994826379014, -50.612894029901, 0
458, 92.67236158423, -54.40712839415, 0
459, 90.974489007235, -46.958898920485, 0
460, 32.218764838117, -35.919893225388, 0
461, 29.747288588336, -42.992062186949, 0
462, 354.75951785737, -59.221174710234, 0
463, 346.43123500898, -39.882297591987, 0
464, 138.4307358125, -205.57135628703, 0
465, 121.36796442308, -202.10970162729, 0
466, 174.6063958858, -13.621479894261, 0
467, 173.30719852243, -20.588906582804, 0
468, 165.97349601398, -17.938590274522, 0
469, 104.91195495956, -134.19890006927, 0
470, 115.08847693983, -144.79480260065, 0
471, 102.7459342432, -147.55398743926, 0
472, 240.90304345145, -436.15235534505, 0
473, 213.87444959218, -438.20954566261, 0
474, 228.20399601741, -416.8385823418, 0
475, 259.18347761572, -155.86422374582, 0
476, 275.35659342112, -144.62306702542, 0
477, 93.858144940123, -62.356147357964, 0
478, 85.837807568343, -58.702152248548, 0
479, 200.58121407355, -96.117114953107, 0
480, 196.5040337328, -110.67213761658, 0
481, 375.48042100686, -162.71226802618, 0
482, 395.84163261122, -152.10430774248, 0
483, 399.35533822733, -171.66858970309, 0
484, 148.86388399642, -48.942973326619, 0
485, 139.64341147675, -45.982147431557, 0
486, 148.66496508005, -39.816640694277, 0
487, 428.51955503985, -81.488794265465, 0
488, 408.17915181167, -72.939487100639, 0
489, 433.00522637868, -66.144995881708, 0
490, 235.84768446866, -131.16181491987, 0
491, 226.30507350097, -140.85833009794, 0
492, 219.64142452126, -123.81772322967, 0
493, 221.60489109012, -82.042529966686, 0
494, 219.9344957768, -96.489787509484, 0
495, 209.88976852028, -90.378787563147, 0
496, 101.92740580989, -32.215053031996, 0
497, 98.398455332305, -26.413431815392, 0
498, 105.60926911378, -28.713846458514, 0
499, 103.21758669669, -38.840066115677, 0
500, 96.00677291522, -36.539651472555, 0
501, 129.91399126843, -80.980489650437, 0
502, 129.57114386419, -69.725334015958, 0
503, 409.22170457095, -477.09245208652, 0
504, 434.22170457095, -477.09245208652, 0
505, 132.23548637728, -15.052819822462, 0
506, 128.50373409849, -19.127472327164, 0
507, 124.10170658313, -13.568253154224, 0
508, 295.76589251918, -98.672809920928, 0
509, 292.31350640664, -116.74109239154, 0
510, 278.30995117173, -107.65182587674, 0
511, 267.93393166012, -258.13464672259, 0
512, 288.33450915778, -250.36416924429, 0
513, 283.57272845159, -270.34750790574, 0
514, 46.242910994115, -50.308446131864, 0
515, 38.985150869471, -52.943250040643, 0
516, 35.601582511119, -240.4446544487, 0
517, 22.939732911871, -239.2058224657, 0
518, 33.917452130835, -225.61280896706, 0
519, 13.879601564604, -17.341217562881, 0
520, 11.723199586062, -11.91924234936, 0
521, 27.162566073705, -12.981976997842, 0
522, 24.401697685355, -18.017974056795, 0
523, 322.70672943217, -62.696975745884, 0
524, 306.87290131019, -56.135976766809, 0
525, 319.53319864638, -46.601035846297, 0
526, 148.31641201382, -60.227841490675, 0
527, 157.33796561713, -54.062334753395, 0
528, 179.69019619795, -25.802012453801, 0
529, 171.05729632613, -30.119122834062, 0
530, 268.21678411335, -95.583924597808, 0
531, 264.7643980008, -113.65220706841, 0
532, 55.319087504641, -444.23596781798, 0
533, 53.506260552288, -418.6471694375, 0
534, 72.779410075538, -431.14598836286, 0
535, 100.38777624157, -157.98184554305, 0
536, 90.211254261294, -147.38594301167, 0
537, 429.57271925019, -126.71428392865, 0
538, 437.22649707343, -143.82253113606, 0
539, 412.06277200844, -143.95238221198, 0
540, 202.25160938687, -81.669857410309, 0
541, 441.50779675662, -90.501071798721, 0
542, 416.6817221896, -97.295563017653, 0
543, 32.278725989831, -302.19173672366, 0
544, 15.16328304853, -310.55659668697, 0
545, 417.03947904578, -116.57598777774, 0
546, 442.20320411077, -116.44613670182, 0
547, 48.14396686513, -13.622034476904, 0
548, 45.332591026147, -19.088749874653, 0
549, 388.18785478798, -134.99606053507, 0
550, 88.581258438555, -12.568616852845, 0
551, 85.926792947307, -16.205424067692, 0
552, 82.654465491132, -11.694755918193, 0
553, 403.2794349883, -44.360948825422, 0
554, 393.40841604844, -61.438001655989, 0
555, 453.24765256942, -347.92372975313, 0
556, 431.48775777059, -351.71988803146, 0
557, 434.93883501193, -328.79615827827, 0
558, 211.39323603963, -401.80050671835, 0
559, 238.4218298989, -399.74331640079, 0
560, 330.9259080251, -39.083805472717, 0
561, 315.09207990312, -32.522806493642, 0
562, 130.47375712058, -25.01338012223, 0
563, 122.33997732642, -23.528813453992, 0
564, 457.08026688431, -298.57444949392, 0
565, 435.35164843862, -306.85034248449, 0
566, 435.73318551216, -280.42479197848, 0
567, 243.06824522294, -164.53770524589, 0
568, 259.74038939028, -172.19950720356, 0
569, 133.29541394227, -404.98577942748, 0
570, 127.75741994669, -423.23994003929, 0
571, 108.1669419902, -410.74221996378, 0
572, 259.01718878601, -190.36540508956, 0
573, 275.13242117878, -181.69192358949, 0
574, 440.92043438172, -458.79118189729, 0
575, 456.69872981077, -481.69872981077, 0
576, 427.1691748804, -369.77059901646, 0
577, 408.8603573229, -350.6430275416, 0
578, 265.6532630494, -437.22436073373, 0
579, 251.32371662417, -458.59532405454, 0
580, 53.124851162111, -46.658193885428, 0
581, 52.14992126408, -54.130981119442, 0
582, 47.909609103745, -242.25526964862, 0
583, 36.931889884782, -255.84828314725, 0
584, 478.34936490538, -312.49999999993, 0
585, 478.73090197893, -286.07444949392, 0
586, 228.08741293517, -155.94425303014, 0
587, 211.88115298776, -148.60016133994, 0
588, 58.490589210801, -58.164986685638, 0
589, 51.608649042804, -61.815238932074, 0
590, 107.65213198294, -16.580972973175, 0
591, 109.69365315746, -10.0016375676, 0
592, 113.34636505845, -15.463535664437, 0
593, 77.255811247546, -26.802726871779, 0
594, 71.355926901094, -23.629258278343, 0
595, 76.584420320053, -20.983204285963, 0
596, 169.05838067124, -222.67923382441, 0
597, 182.56997289638, -230.5104973672, 0
598, 168.09227693449, -239.36392796482, 0
599, 27.649888357339, -128.3869367505, 0
600, 21.046941788395, -121.83344826697, 0
601, 31.028011232217, -118.5945879244, 0
602, 219.86669544178, -34.958749082425, 0
603, 221.16822180319, -44.916560107078, 0
604, 210.29240758568, -42.576896076753, 0
605, 132.34087267081, -50.08959866163, 0
606, 132.14195375444, -40.963266029287, 0
607, 254.35030506936, -261.09536327956, 0
608, 259.11208577555, -241.11202461811, 0
609, 124.5747076485, -37.242719254209, 0
610, 131.87724645445, -33.135268024136, 0
611, 34.336798559848, -411.56967845766, 0
612, 51.797121130745, -398.47969900255, 0
613, 106.26368516615, -53.855283781788, 0
614, 115.95880332776, -56.66618176925, 0
615, 151.39633614641, -459.36169100296, 0
616, 139.73872895616, -438.83166825814, 0
617, 164.54349908902, -438.01352224781, 0
618, 106.69258126006, -22.477548155961, 0
619, 103.03986935907, -17.015650059123, 0
620, 184.45908357208, -196.89539592876, 0
621, 167.75739373388, -204.06618370544, 0
622, 110.48644548382, -42.082455867564, 0
623, 104.56581258915, -46.407054308122, 0
624, 34.380900189682, -18.641474734028, 0
625, 32.191867816663, -13.010091450506, 0
626, 477.36822215759, -138.29221642628, 0
627, 479.22242006396, -163.49359620843, 0
628, 456.59064222155, -151.78581263487, 0
629, 75.342267986742, -16.570649412783, 0
630, 81.242152333194, -19.74411800622, 0
631, 96.392351752295, -127.49148640115, 0
632, 108.73489444892, -124.73230156254, 0
633, 439.08069497981, -169.02391091821, 0
634, 477.36822215759, -113.29221642631, 0
635, 454.04103696102, -100.63936794963, 0
636, 476.67281480343, -87.347151523215, 0
637, 114.61025700408, -444.58810879444, 0
638, 87.168945280618, -20.617978940872, 0
639, 71.389814964743, -175.05559812361, 0
640, 77.68054767955, -161.45774166969, 0
641, 81.562363544855, -171.41165756939, 0
642, 129.40691240856, -103.1374716015, 0
643, 120.1876826687, -97.285183124924, 0
644, 129.98785982758, -92.045519224025, 0
645, 116.72410996994, -31.965094462088, 0
646, 110.22153173765, -28.279169372565, 0
647, 117.80742211622, -25.728796159535, 0
648, 97.926502988343, -14.099179939341, 0
649, 96.966952265459, -19.995755122127, 0
650, 128.33169074328, -126.33819113348, 0
651, 118.43061645293, -119.90842536653, 0
652, 129.50780954003, -114.80690126935, 0
653, 309.3198752813, -125.86843849973, 0
654, 291.86393393384, -134.84745445554, 0
655, 153.279697772, -212.91961430306, 0
656, 111.54199936445, -91.274344535746, 0
657, 102.92940869251, -86.142575242883, 0
658, 28.170669599189, -86.861022737324, 0
659, 20.049142047744, -89.182624985965, 0
660, 20.854979783377, -81.284918241887, 0
661, 150.22146510557, -140.6144361708, 0
662, 138.9695993819, -133.87549498858, 0
663, 150.66074955405, -127.97560821852, 0
664, 138.29578300677, -480.08991850664, 0
665, 163.10055313963, -479.27177249631, 0
666, 443.04711173085, -53.757291140688, 0
667, 422.70670850267, -45.207983975862, 0
668, 95.024327706235, -80.366341682159, 0
669, 86.764398796426, -75.727081207479, 0
670, 95.283519834045, -71.290431687042, 0
671, 79.444116118472, -70.67084598554, 0
672, 71.954517180694, -66.579445459608, 0
673, 79.533991986459, -62.559770686429, 0
674, 173.37766089111, -156.21069932766, 0
675, 161.14985588782, -149.20225329816, 0
676, 174.14042028102, -141.72299543024, 0
677, 291.09964476373, -190.60416359503, 0
678, 291.822845368, -172.43826570903, 0
679, 295.90438469013, -80.907730036262, 0
680, 281.34905759327, -73.825068157518, 0
681, 295.49110499913, -65.149254787651, 0
682, 281.71110884648, -292.08758819288, 0
683, 302.11168634413, -284.31711071458, 0
684, 199.5227914665, -171.82553645143, 0
685, 185.87515789768, -164.34821504523, 0
686, 200.01585885314, -156.20876286594, 0
687, 66.07965020406, -32.821713349445, 0
688, 60.207792867896, -30.173353777754, 0
689, 66.155460492424, -26.800421292468, 0
690, 65.395579188271, -46.975047225804, 0
691, 59.581922005804, -43.337687353868, 0
692, 65.945639761999, -39.832005706665, 0
693, 239.74503836184, -118.26410952287, 0
694, 4.2327089474545, -12.751122626454, 0
695, 4.2327089474545, -18.125989758539, 0
696, 116.98881726993, -39.793092467239, 0
697, 60.13156229008, -220.59274053754, 0
698, 49.661639092538, -213.62083755201, 0
699, 63.213899652535, -207.36193713949, 0
700, 268.83358371981, -81.308418874834, 0
701, 268.42030402881, -65.549943626223, 0
702, 243.777224251, -80.593412128281, 0
703, 232.10182746965, -74.504707093614, 0
704, 244.229433374, -66.944589308872, 0
705, 176.09249919166, -44.846952271233, 0
706, 166.31507099069, -48.569571213374, 0
707, 167.66286580069, -39.054847647199, 0
708, 209.85152150381, -292.5847538444, 0
709, 211.23787081233, -272.9017711533, 0
710, 228.5646493969, -284.6771874594, 0
711, 165.7675990081, -59.85443937743, 0
712, 8.8344094567584, -127.89010624362, 0
713, 8.8344094567584, -137.81308276558, 0
714, 230.4168269178, -101.13736898231, 0
715, 218.70170434795, -109.47362657877, 0
716, 147.92492304184, -70.557475735438, 0
717, 139.45084142113, -65.438114308662, 0
718, 87.325604435881, -180.21614902125, 0
719, 93.616337150688, -166.61829256733, 0
720, 71.893307386527, -36.45907322138, 0
721, 228.33756033507, -188.71322056831, 0
722, 213.3567280473, -180.11976835256, 0
723, 228.64432470974, -172.27953648788, 0
724, 64.996855019103, -62.158807329383, 0
725, 65.538127240379, -54.474549516752, 0
726, 43.366665845922, -31.690903740814, 0
727, 38.448731692687, -27.172386874396, 0
728, 44.170124396189, -24.902361822926, 0
729, 183.6881650652, -49.515934482343, 0
730, 185.0359598752, -40.001210916168, 0
731, 8.2257937082391, -71.682509872914, 0
732, 14.592519824205, -76.997043609518, 0
733, 6.3667261159662, -78.291986753923, 0
734, 309.90793992503, -89.996996551062, 0
735, 86.154017809718, -207.77779587478, 0
736, 74.477726840063, -199.67167707417, 0
737, 86.947921799703, -193.11563282393, 0
738, 71.901844996573, -50.968867869549, 0
739, 478.73090197893, -261.0744494939, 0
740, 173.48646895238, -312.55450127216, 0
741, 174.6236812301, -291.45466453304, 0
742, 191.38753064152, -301.90917427742, 0
743, 244.57365791004, -315.29954504248, 0
744, 245.17522552116, -291.23907776727, 0
745, 262.57058334282, -302.17845265925, 0
746, 18.409074230642, -106.09361271609, 0
747, 19.878957830783, -97.452427736351, 0
748, 25.894948263415, -103.39991446114, 0
749, 457.94639737524, -200.36026052068, 0
750, 437.88841318428, -212.74640802633, 0
751, 438.38685593696, -189.37333992267, 0
752, 85.265262753092, -237.65037412464, 0
753, 72.782565611826, -229.38801241195, 0
754, 86.166519991344, -222.59620183771, 0
755, 129.96263283617, -59.395699771195, 0
756, 144.68404205706, -17.145021879842, 0
757, 151.79654199596, -20.715133926113, 0
758, 143.75001383154, -24.182151041672, 0
759, 110.96105194542, -102.36629691322, 0
760, 109.08004555499, -289.08428825832, 0
761, 94.884063914603, -279.28188818823, 0
762, 110.91281517173, -272.27265738394, 0
763, 93.766734097708, -99.820032798725, 0
764, 101.26532994142, -107.19017310924, 0
765, 92.716695397955, -110.65474758392, 0
766, 139.30798669891, -109.56723736845, 0
767, 238.28674851312, -478.76165933293, 0
768, 263.03696811106, -479.83366472161, 0
769, 48.152949720786, -36.128268793597, 0
770, 172.81457877824, -113.02781017352, 0
771, 167.46049368636, -102.29179627549, 0
772, 127.8924062948, -138.97701908575, 0
773, 98.636714950985, -216.04015758747, 0
774, 111.75348677986, -209.02895000725, 0
775, 111.76598896149, -223.84735597019, 0
776, 111.46178646563, -255.3720041009, 0
777, 97.683025331975, -246.66441043213, 0
778, 112.42797826626, -239.56615721918, 0
779, 324.31771400664, -211.43563652554, 0
780, 307.23884830674, -201.23702515137, 0
781, 324.86893465285, -191.54911708874, 0
782, 348.7809587983, -440.14889473298, 0
783, 372.35780515015, -445.35212161989, 0
784, 349.62421899586, -461.6933118409, 0
785, 156.66713452792, -284.43292332253, 0
786, 174.56819621706, -273.7875963278, 0
787, 231.64827312597, -49.077148693477, 0
788, 222.07398526987, -56.695295687805, 0
789, 139.13322100829, -86.832778127013, 0
790, 120.16654967305, -337.07641960288, 0
791, 103.60726494451, -343.29899185552, 0
792, 105.63334086421, -324.5939571883, 0
793, 173.35065476819, -125.61638976398, 0
794, 161.37653928778, -122.12596981028, 0
795, 149.45870571567, -155.10214006822, 0
796, 250.21969904414, -30.789559874949, 0
797, 254.63034608845, -18.350353471988, 0
798, 260.08074362808, -29.674282494918, 0
799, 50.688838307844, -69.362140860542, 0
800, 44.348170361123, -65.328135294347, 0
801, 138.04100322652, -28.733926897308, 0
802, 148.09766275724, -92.103000513881, 0
803, 158.91434962244, -97.922791773491, 0
804, 150.02377643264, -103.71759896021, 0
805, 139.45762256686, -310.23568823172, 0
806, 123.65071120244, -300.22322119484, 0
807, 140.91570817653, -292.0875244909, 0
808, 199.21602709184, -188.25922053186, 0
809, 255.78746336956, -57.573391620709, 0
810, 268.30293724302, -50.090040903393, 0
811, 53.674911735839, -39.51515236629, 0
812, 54.610020564478, -32.807762262037, 0
813, 413.59175363978, -310.64650076282, 0
814, 325.04678213303, -98.786940390289, 0
815, 325.18527430398, -81.021860505623, 0
816, 15.16328304853, -327.52464726027, 0
817, 258.60533940517, -207.53120751291, 0
818, 243.21330761667, -198.03879112699, 0
819, 308.33018588072, -162.66265313915, 0
820, 292.36296229578, -153.75041313362, 0
821, 94.410287654894, -90.57922476332, 0
822, 32.43570801553, -109.06490747229, 0
823, 33.905591615671, -100.42372249256, 0
824, 289.69167001342, -229.63742632466, 0
825, 305.33046680489, -241.8502875078, 0
826, 109.91101324567, -113.20101169841, 0
827, 79.184923990661, -79.746755980658, 0
828, 64.00780364252, -192.69977408864, 0
829, 185.57845977148, -132.62483579348, 0
830, 36.202433480492, -75.91917660803, 0
831, 30.157237543822, -71.601235743643, 0
832, 37.383163689494, -68.557096358428, 0
833, 150.12467356411, -115.38702862806, 0
834, 290.54842411752, -210.49068303183, 0
835, 137.92720708749, -14.684383938622, 0
836, 145.97373525191, -11.217366823062, 0
837, 38.302974424453, -61.01019442996, 0
838, 227.92571095423, -205.87902299166, 0
839, 25.57075162748, -46.321065750507, 0
840, 22.615719572957, -41.20786122205, 0
841, 59.230305051828, -235.64691282447, 0
842, 201.38730165275, -458.03343182924, 0
843, 188.6882542187, -438.719658826, 0
844, 187.46402034336, -22.377956122995, 0
845, 185.21411814707, -31.908172374253, 0
846, 208.71430922609, -313.68459058352, 0
847, 113.29578300677, -480.08991850664, 0
848, 87.296118513942, -478.36739337167, 0
849, 100.59190152072, -458.45731187832, 0
850, 324.67659048746, -134.61132502296, 0
851, 325.12616296025, -116.50496295896, 0
852, 246.56157482968, -271.55609507617, 0
853, 64.906979151116, -70.269882628494, 0
854, 100.98439599845, -361.07514783765, 0
855, 86.451187189604, -348.59268542307, 0
856, 172.05164508032, -331.56081401309, 0
857, 155.28779566889, -321.10630426871, 0
858, 255.28803054888, -87.308800066513, 0
859, 243.16042464453, -94.868917851255, 0
860, 84.299070952456, -253.45622100636, 0
861, 268.29337988363, -35.621579586399, 0
862, 280.92622054289, -43.598131591913, 0
863, 99.001895405537, -188.32226782186, 0
864, 323.77058264361, -232.15052727842, 0
865, 322.41342178797, -252.87727019805, 0
866, 106.15101713259, -166.78633699492, 0
867, 115.38781213963, -172.76657241762, 0
868, 108.61637304875, -181.4030194419, 0
869, 341.40066898973, -222.46261921578, 0
870, 107.62195994531, -307.23245199913, 0
871, 36.455059347152, -134.86565775367, 0
872, 26.47398990333, -138.10451809624, 0
873, 359.80200723176, -233.04556007278, 0
874, 360.34913859479, -212.3306693199, 0
875, 324.60079835935, -171.93316742605, 0
876, 325.14091528713, -153.24531485064, 0
877, 478.72397731127, -211.86666431209, 0
878, 479.22242006396, -188.49359620844, 0
879, 125.65776810602, -265.17440417099, 0
880, 177.03064702845, -418.18963608118, 0
881, 125.54475009514, -232.55494963896, 0
882, 243.41676158203, -335.67305937419, 0
883, 226.02140376036, -324.73368448222, 0
884, 281.10954123536, -316.14805546809, 0
885, 138.02279869479, -329.24200097265, 0
886, 398.66149918449, -192.01801870755, 0
887, 419.02271078885, -181.41005842386, 0
888, 476.67281480343, -62.347151523258, 0
889, 22.71404737565, -74.675441360877, 0
890, 23.894777584651, -67.313361111275, 0
891, 32.988460556202, -30.340681791371, 0
892, 33.791919106469, -23.552139873483, 0
893, 88.600448347463, -27.035655634137, 0
894, 93.285088961576, -23.49696169561, 0
895, 13.944805378502, -123.25539084343, 0
896, 17.32292825338, -113.46304201733, 0
897, 54.685830852842, -26.786470205061, 0
898, 77.771062726353, -32.917497002613, 0
899, 82.999556145311, -30.271443010233, 0
900, 213.28674851311, -478.76165933293, 0
901, 188.10055313963, -479.27177249631, 0
902, 417.47422199668, -223.60943388132, 0
903, 397.68502454209, -234.18649525561, 0
904, 398.53967429141, -212.3365488026, 0
905, 131.89033159007, -385.16425380993, 0
906, 151.48080954657, -397.66197388544, 0
907, 207.55741289808, -334.05810491523, 0
908, 244.11206658821, -51.484686586042, 0
909, 328.75089698125, -435.59662381525, 0
910, 351.48448313554, -419.25543359424, 0
911, 141.4091944574, -257.51980300262, 0
912, 140.8602231635, -274.42045628566, 0
913, 124.96979128903, -164.83357834324, 0
914, 140.39371205464, -239.903207655, 0
915, 155.59616711212, -249.14925976966, 0
916, 4.8169288571412, -23.63384267298, 0
917, 9.0496378045957, -21.05344443816, 0
918, 292.31757421334, -49.053314888064, 0
919, 341.67966405926, -182.13177880022, 0
920, 360.20282719436, -172.39618956216, 0
921, 360.47096348787, -192.01213922485, 0
922, 437.03376343495, -234.59635447933, 0
923, 154.37397568508, -35.264864838641, 0
924, 157.76840621052, -26.329140025504, 0
925, 161.27986812516, -33.841741776202, 0
926, 378.8723017299, -202.59508008184, 0
927, 385.1352121716, -15.563104466981, 0
928, 366.93591038335, -13.301280179301, 0
929, 478.72397731127, -236.86666431211, 0
930, 273.55246647041, -219.00456476831, 0
931, 257.74858530107, -226.67795080574, 0
932, 145.15350316541, -32.304038943579, 0
933, 169.10775933726, -256.98052331245, 0
934, 187.06430603944, -264.00226452296, 0
935, 62.296118513944, -478.36739337167, 0
936, 8.8624535254676, -149.50929796891, 0
937, 17.696862982226, -143.3220122964, 0
938, 78.348208630566, -54.610751722616, 0
939, 243.20630312153, -39.705951005314, 0
940, 237.7559055819, -28.382021982385, 0
941, 64.965140914623, -291.71916836981, 0
942, 48.045742012449, -295.96700522931, 0
943, 51.150284784777, -280.07050128062, 0
944, 378.13516756304, -244.40519565419, 0
945, 359.18669795798, -254.53714555008, 0
946, 199.07860877229, -223.61388070503, 0
947, 198.11250503554, -240.29857484544, 0
948, 453.88986710344, -396.77075399365, 0
949, 434.61086366238, -413.08600202937, 0
950, 430.51757188702, -387.16270754203, 0
951, 80.560488992409, -285.95809174187, 0
952, 82.393258609145, -269.14646086749, 0
953, 340.4034973392, -107.52982691352, 0
954, 319.79605817303, -296.19381799596, 0
955, 321.65767777814, -274.45373770882, 0
956, 5.1103959217432, -119.51969999398, 0
957, 341.99011626572, -25.804068239332, 0
958, 198.23351941894, -141.12283993374, 0
959, 5.2362971547018, -47.884457387104, 0
960, 5.2362971547018, -54.648720916944, 0
961, 299.27711897583, -327.83276203103, 0
962, 280.13659347218, -337.9236264974, 0
963, 338.23152049698, -308.14391581219, 0
964, 318.68552906298, -318.00728881796, 0
965, 6.1965418990055, -94.44655971204, 0
966, 6.1965418990055, -102.9593782558, 0
967, 14.435600254548, -344.65641087177, 0
968, 14.435600254548, -362.97602192986, 0
969, 18.167625821507, -63.550826298495, 0
970, 25.61081598968, -60.476620681261, 0
971, 457.4548792902, -247.94111380612, 0
972, 12.311931646078, -247.26994405354, 0
973, 10.627801265793, -232.43809857191, 0
974, 12.563268014972, -91.876323240914, 0
975, 43.499523874409, -381.46488578038, 0
976, 62.668985866849, -388.54237676022, 0
977, 4.8169288571412, -29.436834506002, 0
978, 261.06140408078, -347.61033631012, 0
979, 242.5091499311, -357.04447574985, 0
980, 148.0237941981, -81.037970940293, 0
981, 156.88936479079, -75.827698122305, 0
982, 340.94720296609, -143.88183930986, 0
983, 18.022968990695, -421.45909180427, 0
984, 18.022968990695, -442.81336701159, 0
985, 237.7397289451, -254.53347297169, 0
986, 188.44788914767, -342.07536033051, 0
987, 170.24921586418, -350.62716332707, 0
988, 29.598883303078, -337.1968989187, 0
989, 4.7796404738251, -41.632831474914, 0
990, 10.015937628527, -44.67448052426, 0
991, 334.43164057257, -12.502788060031, 0
992, 318.96820499427, -12.502788060031, 0
993, 403.82213532118, -15.563104466981, 0
994, 478.9915794394, -411.34702424048, 0
995, 474.89828766404, -385.42372975314, 0
996, 4.7574650859655, -67.456987762225, 0
997, 12.983258794205, -66.162044617821, 0
998, 6.3667261159662, -86.176756961655, 0
999, 8.8624535254676, -160.22267236896, 0
1000, 4.7796404738251, -35.367613135737, 0
1001, 57.431021271067, -73.87546684933, 0
1002, 50.170542589386, -77.388363211603, 0
1003, 241.92763321568, -107.85275692054, 0
1004, 478.34936490538, -337.49999999994, 0
1005, 41.735401180006, -270.98861824365, 0
1006, 313.02368632201, -478.245042477, 0
1007, 338.02368632201, -478.245042477, 0
1008, 77.637052284292, -39.927789359834, 0
1009, 42.865231253998, -80.872063293093, 0
1010, 35.639305108327, -83.916202678309, 0
1011, 16.313829569153, -381.51279467611, 0
1012, 16.313829569153, -401.29162136932, 0
1013, 9.5965693309663, -32.492075982335, 0
1014, 9.6336822691149, -194.63812034018, 0
1015, 9.6336822691149, -207.12617509076, 0
1016, 272.70402692794, -23.182373183438, 0
1017, 139.73172274986, -224.184406406, 0
1018, 30.749429823701, -372.86543527646, 0
1019, 337.84557164017, -71.486919585111, 0
1020, 474.89828766404, -360.42372975313, 0
1021, 414.84098879393, -428.83142987539, 0
1022, 394.97897704724, -438.9963043425, 0
1023, 391.37655669928, -413.64283004486, 0
1024, 122.46117511386, -54.376818368925, 0
1025, 397.0697152683, -255.67808073291, 0
1026, 438.21328401034, -438.43947632701, 0
1027, 450.46724574209, -32.161597845557, 0
1028, 460.7657636181, -53.098609751403, 0
1029, 340.09779361687, -264.75397747943, 0
1030, 91.062675216764, -313.45502425178, 0
1031, 165.81633278264, -70.4031080494, 0
1032, 174.7934381562, -64.910344509379, 0
1033, 358.43095394814, -276.11361306084, 0
1034, 288.03696811106, -479.83366472161, 0
1035, 8.980370100312, -171.25575847199, 0
1036, 8.980370100312, -182.822486959, 0
1037, 77.45594622008, -301.85459569056, 0
1038, 86.797765558898, -417.27678527898, 0
1039, 88.610592511251, -442.86558365947, 0
1040, 89.11569982627, -33.150425764971, 0
1041, 478.9915794394, -436.34702424048, 0
1042, 50.250525179382, -23.607266741071, 0
1043, 55.848297482799, -20.972858256788, 0
1044, 301.06065443307, -458.0787071986, 0
1045, 282.11750928003, -14.56483513746, 0
1046, 273.90487302447, -8.6175380459786, 0
1047, 228.71129957364, -224.3032758668, 0
1048, 213.83555229205, -214.97770530813, 0
1049, 317.71258129979, -339.78285984727, 0
1050, 228.83517587542, -8.8161831287627, 0
1051, 218.24647897925, -8.8161831287627, 0
1052, 251.24782747817, -9.7328154260098, 0
1053, 239.6076840722, -9.7328154260098, 0
1054, 32.020144197841, -56.172211104724, 0
1055, 183.78740749287, -59.552549183505, 0
1056, 192.73086817641, -54.706807828439, 0
1057, 26.292992434697, -52.409676291943, 0
1058, 19.161423419318, -50.625475327044, 0
1059, 70.72909326073, -353.52953723032, 0
1060, 73.35196220679, -335.75338124818, 0
1061, 108.23869041258, -194.30250324457, 0
1062, 17.84282362578, -166.05131360275, 0
1063, 18.614052369427, -188.90003308697, 0
1064, 222.05710021313, -68.393707147277, 0
1065, 135.99672277509, -347.94703563987, 0
1066, 69.975496030262, -260.13242456, 0
1067, 279.22898182125, -359.29504287306, 0
1068, 137.773720644, -159.01579482834, 0
1069, 388.92274470961, -76.781800039746, 0
1070, 39.038654584473, -115.61839595583, 0
1071, 205.75498368194, -353.12445422921, 0
1072, 357.23806272917, -77.546059469973, 0
1073, 46.093582119677, -313.84040381285, 0
1074, 52.300345481122, -188.92144409968, 0
1075, 63.56417266865, -181.23118403436, 0
1076, 187.97216004217, -8.1358981012719, 0
1077, 179.21000934719, -8.1358981012719, 0
1078, 85.861653111431, -94.043799238001, 0
1079, 77.851738539617, -97.387231410044, 0
1080, 78.495292096802, -88.146423374638, 0
1081, 93.230973404451, -12.23002686406, 0
1082, 99.303890498063, -9.2499218010565, 0
1083, 213.0616159759, -16.452614960914, 0
1084, 208.0838098442, -7.6364318321514, 0
1085, 53.359936014874, -462.60354544833, 0
1086, 34.086786491623, -450.10472652296, 0
1087, 198.59996542159, -268.70475526884, 0
1088, 217.31309331468, -260.79718888383, 0
1089, 10.627801265793, -218.95533034871, 0
1090, 349.93696755645, -13.301280179301, 0
1091, 27.561952251898, -32.299646224475, 0
1092, 65.48406956493, -20.980898706652, 0
1093, 443.79192926992, -16.410139617421, 0
1094, 423.24940883555, -16.410139617421, 0
1095, 356.07666395869, -98.487116527258, 0
1096, 372.99061017589, -86.221371652381, 0
1097, 64.388683432657, -78.296104979555, 0
1098, 14.699297199233, -59.325304187806, 0
1099, 156.63457477087, -6.8390023821416, 0
1100, 149.38389107819, -6.8390023821416, 0
1101, 133.52517957213, -9.1251647656816, 0
1102, 357.67249136617, -297.95473522207, 0
1103, 356.56196225612, -319.76820604407, 0
1104, 27.407761005431, -4.5324247420681, 0
1105, 22.407761005457, -4.5324247420681, 0
1106, 197.44375390611, -125.01623426747, 0
1107, 216.10758316761, -25.125725654813, 0
1108, 205.94491403257, -23.945974358201, 0
1109, 14.46382147429, -22.849070477322, 0
1110, 37.437062748377, -4.5605391947324, 0
1111, 32.437062748388, -4.5605391947324, 0
1112, 484.09294881467, -15.751458228136, 0
1113, 461.51058115717, -15.751458228136, 0
1114, 437.04068810261, -258.80413966112, 0
1115, 49.60741421722, -85.385389281881, 0
1116, 198.29302015288, -205.18962782989, 0
1117, 40.829083424142, -217.53922994698, 0
1118, 43.911420786597, -204.30842654892, 0
1119, 47.437470960372, -4.7252070805049, 0
1120, 42.43747096038, -4.7252070805049, 0
1121, 356.68912157825, -152.83190760156, 0
1122, 278.47967562073, -380.31886216954, 0
1123, 276.01907434414, -403.21868183877, 0
1124, 257.69319115327, -391.88157235501, 0
1125, 211.57704889034, -64.233118560878, 0
1126, 125.72638557845, -152.33210645575, 0
1127, 84.083415918284, -43.5696732129, 0
1128, 78.205660578458, -47.111249431668, 0
1129, 375.15471619958, -331.2837687263, 0
1130, 355.71374533039, -341.47294931642, 0
1131, 26.502033972039, -149.80073329956, 0
1132, 198.45158426547, -7.6364318321514, 0
1133, 376.76139570728, -287.73790329272, 0
1134, 335.70944556564, -350.60852737846, 0
1135, 316.3010354785, -360.43400059153, 0
1136, 233.99679330773, -18.548998554773, 0
1137, 60.560612425491, -251.05054152303, 0
1138, 165.91520393889, -80.883603254255, 0
1139, 57.489578493237, -4.2359870672832, 0
1140, 52.489578493246, -4.2359870672832, 0
1141, 168.36059356295, -369.49107895619, 0
1142, 151.9643494956, -358.97653263877, 0
1143, 171.87630683874, -5.4855817929892, 0
1144, 204.12826492633, -372.92347521091, 0
1145, 199.68972939812, -389.25268195513, 0
1146, 182.20692440332, -377.47091638871, 0
1147, 297.55486501213, -370.63215235682, 0
1148, 163.90563634881, -5.4855817929892, 0
1149, 67.498263082067, -4.137571965787, 0
1150, 62.498263082053, -4.137571965787, 0
1151, 313.82947454822, -21.920316386251, 0
1152, 306.31289026065, -9.4175283262203, 0
1153, 130.33960268133, -4.7468003247609, 0
1154, 124.33965812145, -4.7468003247609, 0
1155, 115.92270486956, -374.13475681104, 0
1156, 98.766627114662, -379.42845037858, 0
1157, 92.335759554482, -399.02262466717, 0
1158, 77.397450683365, -385.96301569379, 0
1159, 134.10810047386, -366.810951269, 0
1160, 77.499999999875, -4.2105861120761, 0
1161, 72.499999999848, -4.2105861120761, 0
1162, 315.55172927798, -381.45781988801, 0
1163, 361.60053267386, -483.4482693639, 0
1164, 356.15604478591, -116.20513909593, 0
1165, 29.844823753957, -9.0929639368005, 0
1166, 11.306937820749, -107.51555529254, 0
1167, 58.65480008218, -266.74078138415, 0
1168, 222.28606980844, -249.19808147578, 0
1169, 230.07480004812, -238.73734967917, 0
1170, 45.699916674951, -130.73508287161, 0
1171, 44.524018220942, -140.45266421734, 0
1172, 183.8361412674, -70.101217855476, 0
1173, 87.654465491163, -4.0289743516727, 0
1174, 82.654465491135, -4.0289743516727, 0
1175, 354.3021995091, -362.12409006069, 0
1176, 252.48863608858, -111.99565839181, 0
1177, 4.7574650859655, -60.153928952285, 0
1178, 75.467327138979, -319.21610087972, 0
1179, 52.658826916258, -146.76665775603, 0
1180, 43.413969588459, -150.89723263809, 0
1181, 223.23778867673, -364.90621979563, 0
1182, 292.30801685395, -34.584853571071, 0
1183, 192.80978402061, -36.577154585362, 0
1184, 89.958645948276, -7.7193587145603, 0
1185, 387.76134593912, -97.722857097032, 0
1186, 484.09294881467, -40.751458228127, 0
1187, 62.389325582598, -142.17155254695, 0
1188, 61.279276950115, -152.61612096769, 0
1189, 69.099853427028, -368.94820247163, 0
1190, 90.405880713068, -39.775438848651, 0
1191, 292.24625759557, -9.4175283262203, 0
1192, 291.04541149905, -23.98236346368, 0
1193, 415.31206965691, -267.08003265169, 0
1194, 395.76221267786, -277.29873305027, 0
1195, 118.33704316239, -47.360080659685, 0
1196, 47.638642579573, -111.42698617218, 0
1197, 46.23094579626, -120.95666662429, 0
1198, 48.932618307637, -93.811760343369, 0
1199, 48.004742550613, -102.42157341354, 0
1200, 41.37422712481, -97.478902433543, 0
1201, 20.261483534908, -212.54482172611, 0
1202, 261.10887206211, -8.6175380459786, 0
1203, 70.844666521542, -137.91886433118, 0
1204, 81.624484844778, -132.38739890582, 0
1205, 81.789593939691, -142.48955033324, 0
1206, 54.29990467005, -126.54367308796, 0
1207, 62.755245608994, -122.2909848722, 0
1208, 62.224216487685, -132.06940111953, 0
1209, 23.812716602141, -22.928639196251, 0
1210, 28.920629053197, -21.809769651003, 0
1211, 16.063817500928, -461.18094464193, 0
1212, 16.063817500928, -484.23615207665, 0
1213, 118.11687180698, -4.4421001294306, 0
1214, 112.65890065895, -4.4421001294306, 0
1215, 49.927049453794, -8.9611941477881, 0
1216, 404.05123732902, -107.56371024448, 0
1217, 388.11910279531, -117.00328185712, 0
1218, 209.15909338026, -119.17014175684, 0
1219, 407.89017143934, -386.08584705217, 0
1220, 71.175009418847, -83.0901881527, 0
1221, 395.00375009589, -299.13985521149, 0
1222, 240.88243117549, -376.84349673155, 0
1223, 460.69030925017, -443.04575405126, 0
1224, 17.490490638564, -4.1464465875006, 0
1225, 56.237929643024, -90.328060261879, 0
1226, 356.22479677859, -134.19791777388, 0
1227, 394.5909366692, -321.08567100527, 0
1228, 393.74271974347, -342.79041427762, 0
1229, 59.987841575483, -8.3735590330702, 0
1230, 413.32132034047, -31.973244084402, 0
1231, 481.69872981077, -481.69872981077, 0
1232, 481.69872981077, -456.69872981076, 0
1233, 5.1103959217432, -110.32880755704, 0
1234, 41.063817500926, -484.23615207665, 0
1235, 55.1970337624, -107.759844082, 0
1236, 14.160057905814, -35.045486675261, 0
1237, 18.600008738039, -38.102491762031, 0
1238, 13.999231779876, -41.479859698839, 0
1239, 106.96466758345, -5.5595374381689, 0
1240, 101.99971004098, -5.5595374381689, 0
1241, 69.998263082079, -8.3481580778631, 0
1242, 14.19734628913, -29.114708045527, 0
1243, 3.557759086626, -8.5407959626923, 0
1244, 7.7904680340805, -11.335264859958, 0
1245, 53.196074398003, -13.132814463683, 0
1246, 8.5577590866068, -3.5624690980982, 0
1247, 3.557759086626, -3.5624690980982, 0
1248, 386.60053267385, -483.4482693639, 0
1249, 395.8222372448, -460.54072145042, 0
1250, 192.8865827721, -76.075803664935, 0
1251, 183.89261343544, -81.433598990809, 0
1252, 244.16495871031, -229.63866736271, 0
1253, 226.98339738511, -27.465389685138, 0
1254, 371.89796339808, -125.15520738762, 0
1255, 142.62705610863, -4.3783644409207, 0
1256, 80.15446549112, -8.2395604637488, 0
1257, 12.490490638588, -4.1464465875006, 0
1258, 158.70243443604, -19.292010863674, 0
1259, 59.682356803345, -171.27726813466, 0
1260, 302.4367651695, -29.437546759831, 0
1261, 34.833467372695, -91.813909422387, 0
1262, 192.41952261755, -15.772329933423, 0
1263, 136.03132339154, -4.3783644409207, 0
1264, 189.47189551663, -406.34794789615, 0
1265, 209.6481644177, -245.00106559132, 0
1266, 63.699051538798, -86.695772373536, 0
1267, 56.000628444214, -356.10889829674, 0
1268, 72.84226798673, -13.11545395834, 0
1269, 67.840531068949, -13.042439812051, 0
1270, 370.62478511265, -406.24745372173, 0
1271, 390.48679685934, -396.08257925462, 0
1272, 43.978217187488, -330.37768418131, 0
1273, 43.250534393506, -347.50944779282, 0
1274, 160.00163179941, -12.324584175131, 0
1275, 276.72038804259, -421.76756983073, 0
1276, 287.14106121531, -444.21053854021, 0
1277, 59.745233210106, -324.15295268696, 0
1278, 115.83739909413, -19.84288836447, 0
1279, 22.776545698895, -34.773488198473, 0
1280, 62.35888641516, -112.95608156348, 0
1281, 70.283198232794, -118.48180959505, 0
1282, 77.552469296603, -106.21575677987, 0
1283, 70.186108281974, -100.3183809165, 0
1284, 121.61067254744, -9.1889004541915, 0
1285, 165.53438001097, -90.677197829162, 0
1286, 63.024255629214, -95.122143435023, 0
1287, 23.546241416981, -29.194276764456, 0
1288, 117.87892026865, -13.263552958894, 0
1289, 34.837880789836, -155.57847951981, 0
1290, 26.060753868732, -160.79597371997, 0
1291, 92.304180457058, -3.6903843628876, 0
1292, 200.98941175838, -30.551600547773, 0
1293, 197.94344456667, -21.878489853875, 0
1294, 97.304180457086, -3.6903843628876, 0
1295, 297.50687251005, -410.20485964526, 0
1296, 19.027310049138, -25.402481170248, 0
1297, 26.178670443577, -171.829059823, 0
1298, 165.32714038694, -405.64181131796, 0
1299, 55.942177313686, -16.547084423624, 0
1300, 60.377482987146, -19.726287887613, 0
1301, 332.87616053141, -392.98141539962, 0
1302, 314.12999006504, -403.1795671649, 0
1303, 202.11277984791, -48.602450114342, 0
1304, 202.21202227558, -58.639064815504, 0
1305, 202.19513721884, -70.337476274975, 0
1306, 200.81125348651, -38.644639089688, 0
1307, 387.13839985271, -378.69047072905, 0
1308, 42.972689485152, -161.8924730585, 0
1309, 15.17812926797, -53.820096152465, 0
1310, 9.9937622406673, -56.431314471791, 0
1311, 174.46134800281, -85.252607756256, 0
1312, 77.837762160427, -123.4493306598, 0
1313, 88.782689578576, -128.02001666186, 0
1314, 193.13952854178, -251.89768225349, 0
1315, 14.455888460752, -47.731485611029, 0
1316, 92.605629067945, -118.55341815513, 0
1317, 85.107033224236, -111.18327784462, 0
1318, 62.7249863862, -103.95066880485, 0
1319, 41.621294559804, -362.92811303413, 0
1320, 77.441402966593, -114.11442735108, 0
1321, 312.12777942626, -442.6219162956, 0
1322, 57.72525990235, -11.886244094508, 0
1323, 34.972340511321, -177.68824805171, 0
1324, 26.754410268369, -182.94358793449, 0
1325, 27.407722437171, -194.75922131568, 0
1326, 43.12665759689, -172.01328699281, 0
1327, 43.702397421682, -183.1278151043, 0
1328, 65.577949395817, -16.555124873488, 0
1329, 62.733944491166, -11.787828993011, 0
1330, 352.01646250853, -379.97343552711, 0
1331, 350.5947232956, -401.695182804, 0
1332, 69.258887357947, -156.56134899126, 0
1333, 59.528388691607, -161.15645420034, 0
1334, 79.431435938058, -152.91740843704, 0
1335, 77.499999999871, -11.876367678596, 0
1336, 27.173114828215, -204.47124270602, 0
1337, 28.167233824894, -216.30039796397, 0
1338, 51.702746395514, -167.33204011109, 0
1339, 163.92205803474, -385.82028570041, 0
1340, 372.02076227329, -370.83785746507, 0
1341, 389.42413685328, -360.84112526263, 0
1342, 11.048249725233, -7.7089156855989, 0
1343, 314.83130376349, -421.72845515686, 0
1344, 35.313472727157, -198.51479755354, 0
1345, 44.146028395553, -194.59640515858, 0
******* E L E M E N T S *************
*ELEMENT, type=CAX3, ELSET=Line1
1, 1, 15, 6
2, 6, 16, 7
3, 7, 17, 8
4, 8, 18, 9
5, 9, 19, 10
6, 10, 20, 11
7, 11, 21, 12
8, 12, 22, 13
9, 13, 23, 14
10, 14, 24, 2
*ELEMENT, type=CAX3, ELSET=Line2
11, 2, 41, 25
12, 25, 42, 26
13, 26, 43, 27
14, 27, 44, 28
15, 28, 45, 29
16, 29, 46, 30
17, 30, 47, 31
18, 31, 48, 32
19, 32, 49, 33
20, 33, 50, 34
21, 34, 51, 35
22, 35, 52, 36
23, 36, 53, 37
24, 37, 54, 38
25, 38, 55, 39
26, 39, 56, 40
27, 40, 57, 3
*ELEMENT, type=CAX3, ELSET=Line3
28, 3, 67, 58
29, 58, 68, 59
30, 59, 69, 60
31, 60, 70, 61
32, 61, 71, 62
33, 62, 72, 63
34, 63, 73, 64
35, 64, 74, 65
36, 65, 75, 66
37, 66, 76, 4
*ELEMENT, type=CAX3, ELSET=Line4
38, 4, 86, 77
39, 77, 87, 78
40, 78, 88, 79
41, 79, 89, 80
42, 80, 90, 81
43, 81, 91, 82
44, 82, 92, 83
45, 83, 93, 84
46, 84, 94, 85
47, 85, 95, 5
*ELEMENT, type=CAX3, ELSET=Line5
48, 5, 116, 96
49, 96, 117, 97
50, 97, 118, 98
51, 98, 119, 99
52, 99, 120, 100
53, 100, 121, 101
54, 101, 122, 102
55, 102, 123, 103
56, 103, 124, 104
57, 104, 125, 105
58, 105, 126, 106
59, 106, 127, 107
60, 107, 128, 108
61, 108, 129, 109
62, 109, 130, 110
63, 110, 131, 111
64, 111, 132, 112
65, 112, 133, 113
66, 113, 134, 114
67, 114, 135, 115
68, 115, 136, 1
*ELEMENT, type=CAX6, ELSET=Surface1
69, 287, 208, 350, 423, 424, 425
70, 150, 273, 327, 426, 427, 428
71, 180, 178, 313, 429, 430, 431
72, 192, 201, 283, 432, 433, 434
73, 190, 192, 283, 435, 434, 436
74, 100, 101, 305, 121, 437, 438
75, 156, 357, 370, 439, 440, 441
76, 185, 180, 313, 442, 431, 443
77, 265, 182, 379, 444, 445, 446
78, 147, 288, 346, 447, 448, 449
79, 317, 186, 398, 450, 451, 452
80, 185, 313, 388, 443, 453, 454
81, 101, 139, 305, 455, 456, 437
82, 297, 201, 362, 457, 458, 459
83, 290, 287, 350, 460, 425, 461
84, 327, 273, 329, 427, 462, 463
85, 313, 311, 388, 464, 465, 453
86, 340, 152, 416, 466, 467, 468
87, 277, 187, 360, 469, 470, 471
88, 291, 145, 307, 472, 473, 474
89, 299, 186, 317, 475, 450, 476
90, 201, 196, 362, 477, 478, 458
91, 182, 265, 380, 444, 479, 480
92, 320, 365, 374, 481, 482, 483
93, 279, 215, 280, 484, 485, 486
94, 321, 274, 395, 487, 488, 489
95, 272, 186, 347, 490, 491, 492
96, 376, 258, 380, 493, 494, 495
97, 284, 262, 414, 496, 497, 498
98, 262, 284, 297, 496, 499, 500
99, 200, 190, 283, 501, 436, 502
100, 77, 78, 335, 87, 503, 504
101, 155, 296, 402, 505, 506, 507
102, 250, 211, 317, 508, 509, 510
103, 314, 172, 331, 511, 512, 513
104, 208, 298, 350, 514, 515, 424
105, 271, 139, 356, 516, 517, 518
106, 357, 316, 370, 519, 520, 440
107, 357, 156, 373, 439, 521, 522
108, 329, 249, 361, 523, 524, 525
109, 213, 215, 279, 526, 484, 527
110, 152, 278, 416, 528, 529, 467
111, 257, 250, 317, 530, 510, 531
112, 310, 161, 315, 532, 533, 534
113, 277, 360, 396, 471, 535, 536
114, 275, 158, 374, 537, 538, 539
115, 265, 376, 380, 540, 495, 479
116, 274, 321, 406, 487, 541, 542
117, 100, 305, 332, 438, 543, 544
118, 158, 275, 406, 537, 545, 546
119, 288, 147, 359, 447, 547, 548
120, 365, 275, 374, 549, 539, 482
121, 351, 309, 415, 550, 551, 552
122, 273, 150, 395, 426, 553, 554
123, 153, 333, 358, 555, 556, 557
124, 291, 307, 369, 474, 558, 559
125, 142, 329, 361, 560, 525, 561
126, 296, 282, 402, 562, 563, 506
127, 292, 153, 354, 564, 565, 566
128, 174, 186, 299, 567, 475, 568
129, 304, 308, 390, 569, 570, 571
130, 171, 174, 299, 572, 568, 573
131, 77, 335, 403, 504, 574, 575
132, 358, 333, 418, 556, 576, 577
133, 145, 291, 338, 472, 578, 579
134, 208, 203, 298, 580, 581, 514
135, 139, 271, 392, 516, 582, 583
136, 63, 153, 292, 584, 564, 585
137, 186, 177, 347, 586, 587, 491
138, 203, 202, 298, 588, 589, 581
139, 285, 140, 352, 590, 591, 592
140, 261, 246, 364, 593, 594, 595
141, 312, 353, 367, 596, 597, 598
142, 244, 318, 323, 599, 600, 601
143, 344, 368, 372, 602, 603, 604
144, 280, 215, 281, 485, 605, 606
145, 172, 314, 419, 511, 607, 608
146, 280, 281, 282, 606, 609, 610
147, 315, 161, 324, 533, 611, 612
148, 283, 201, 397, 433, 613, 614
149, 306, 157, 308, 615, 616, 617
150, 140, 285, 414, 590, 618, 619
151, 313, 178, 353, 430, 620, 621
152, 297, 284, 397, 499, 622, 623
153, 346, 288, 373, 448, 624, 625
154, 158, 60, 162, 626, 627, 628
155, 261, 364, 415, 595, 629, 630
156, 187, 277, 342, 469, 631, 632
157, 158, 162, 374, 628, 633, 538
158, 59, 158, 321, 634, 635, 636
159, 308, 157, 390, 616, 637, 570
160, 309, 261, 415, 638, 630, 551
161, 256, 394, 396, 639, 640, 641
162, 189, 188, 190, 642, 643, 644
163, 282, 284, 285, 645, 646, 647
164, 309, 140, 414, 648, 619, 649
165, 184, 187, 188, 650, 651, 652
166, 211, 209, 317, 653, 654, 509
167, 285, 284, 414, 646, 498, 618
168, 312, 313, 353, 655, 621, 596
169, 190, 191, 192, 656, 657, 435
170, 263, 371, 378, 658, 659, 660
171, 181, 183, 184, 661, 662, 663
172, 83, 157, 306, 664, 615, 665
173, 328, 321, 395, 666, 489, 667
174, 192, 193, 196, 668, 669, 670
175, 196, 197, 198, 671, 672, 673
176, 179, 180, 181, 674, 675, 676
177, 170, 171, 299, 677, 573, 678
178, 249, 250, 251, 679, 680, 681
179, 223, 314, 331, 682, 513, 683
180, 177, 178, 179, 684, 685, 686
181, 246, 207, 248, 687, 688, 689
182, 205, 203, 207, 690, 691, 692
183, 186, 272, 398, 490, 693, 451
184, 114, 115, 316, 135, 694, 695
185, 282, 281, 284, 609, 696, 645
186, 254, 271, 276, 697, 698, 699
187, 251, 250, 252, 680, 700, 701
188, 252, 258, 259, 702, 703, 704
189, 278, 218, 279, 705, 706, 707
190, 201, 297, 397, 457, 623, 613
191, 228, 322, 325, 708, 709, 710
192, 218, 213, 279, 711, 527, 706
193, 106, 107, 318, 127, 712, 713
194, 258, 272, 380, 714, 715, 494
195, 213, 200, 215, 716, 717, 526
196, 270, 256, 396, 718, 641, 719
197, 205, 207, 246, 692, 687, 720
198, 192, 196, 201, 670, 477, 432
199, 174, 175, 177, 721, 722, 723
200, 198, 202, 203, 724, 588, 725
201, 286, 287, 288, 726, 727, 728
202, 260, 218, 278, 729, 705, 730
203, 110, 293, 378, 731, 732, 733
204, 249, 211, 250, 734, 508, 679
205, 255, 254, 256, 735, 736, 737
206, 198, 203, 205, 725, 690, 738
207, 62, 63, 292, 72, 585, 739
208, 229, 232, 322, 740, 741, 742
209, 225, 228, 314, 743, 744, 745
210, 323, 143, 371, 746, 747, 748
211, 162, 146, 163, 749, 750, 751
212, 239, 253, 254, 752, 753, 754
213, 215, 200, 283, 717, 502, 755
214, 296, 138, 337, 756, 757, 758
215, 190, 188, 191, 643, 759, 656
216, 234, 236, 237, 760, 761, 762
217, 194, 191, 342, 763, 764, 765
218, 184, 188, 189, 652, 642, 766
219, 81, 145, 338, 767, 579, 768
220, 286, 208, 287, 769, 423, 726
221, 182, 341, 379, 770, 771, 445
222, 184, 183, 187, 662, 772, 650
223, 239, 255, 311, 773, 774, 775
224, 238, 237, 239, 776, 777, 778
225, 168, 169, 170, 779, 780, 781
226, 154, 336, 383, 782, 783, 784
227, 322, 232, 345, 741, 785, 786
228, 368, 259, 372, 787, 788, 603
229, 179, 178, 180, 685, 429, 674
230, 189, 190, 200, 644, 501, 789
231, 233, 235, 302, 790, 791, 792
232, 182, 181, 341, 793, 794, 770
233, 181, 180, 183, 675, 795, 661
234, 294, 137, 412, 796, 797, 798
235, 202, 206, 298, 799, 800, 589
236, 280, 282, 296, 610, 562, 801
237, 189, 212, 341, 802, 803, 804
238, 232, 233, 234, 805, 806, 807
239, 177, 175, 178, 722, 808, 684
240, 251, 252, 294, 701, 809, 810
241, 207, 208, 286, 811, 769, 812
242, 354, 153, 358, 565, 557, 813
243, 216, 211, 249, 814, 734, 815
244, 99, 100, 332, 120, 544, 816
245, 171, 173, 174, 817, 818, 572
246, 209, 170, 299, 819, 678, 820
247, 192, 191, 193, 657, 821, 668
248, 242, 323, 371, 822, 748, 823
249, 172, 169, 331, 824, 825, 512
250, 191, 188, 342, 759, 826, 764
251, 196, 193, 197, 669, 827, 671
252, 256, 254, 276, 736, 699, 828
253, 179, 181, 182, 676, 793, 829
254, 206, 263, 264, 830, 831, 832
255, 184, 189, 341, 766, 804, 833
256, 170, 169, 171, 780, 834, 677
257, 138, 296, 382, 756, 835, 836
258, 206, 264, 298, 832, 837, 800
259, 174, 173, 175, 818, 838, 721
260, 290, 350, 400, 461, 839, 840
261, 254, 253, 271, 753, 841, 697
262, 145, 306, 307, 842, 843, 473
263, 278, 152, 401, 528, 844, 845
264, 228, 229, 322, 846, 742, 708
265, 157, 84, 310, 847, 848, 849
266, 210, 209, 211, 850, 653, 851
267, 314, 228, 325, 744, 710, 852
268, 198, 197, 202, 672, 853, 724
269, 302, 235, 303, 791, 854, 855
270, 229, 231, 232, 856, 857, 740
271, 252, 257, 258, 858, 859, 702
272, 239, 237, 253, 777, 860, 752
273, 251, 294, 295, 810, 861, 862
274, 255, 256, 270, 737, 718, 863
275, 169, 167, 331, 864, 865, 825
276, 270, 360, 388, 866, 867, 868
277, 168, 167, 169, 869, 864, 779
278, 234, 233, 236, 806, 870, 760
279, 318, 244, 343, 599, 871, 872
280, 239, 254, 255, 754, 735, 773
281, 165, 167, 168, 873, 869, 874
282, 199, 170, 209, 875, 819, 876
283, 61, 146, 162, 877, 749, 878
284, 59, 60, 158, 69, 626, 634
285, 234, 237, 238, 762, 776, 879
286, 307, 306, 308, 843, 617, 880
287, 209, 299, 317, 820, 476, 654
288, 238, 239, 311, 778, 775, 881
289, 207, 203, 208, 691, 580, 811
290, 225, 227, 228, 882, 883, 743
291, 223, 225, 314, 884, 745, 682
292, 174, 177, 186, 723, 586, 567
293, 232, 231, 233, 857, 885, 805
294, 163, 320, 374, 886, 483, 887
295, 58, 59, 321, 68, 636, 888
296, 264, 263, 293, 831, 889, 890
297, 288, 287, 289, 727, 891, 892
298, 262, 261, 309, 893, 638, 894
299, 323, 318, 411, 600, 895, 896
300, 248, 207, 286, 688, 812, 897
301, 247, 246, 261, 898, 593, 899
302, 145, 82, 306, 900, 901, 842
303, 163, 164, 165, 902, 903, 904
304, 308, 304, 363, 569, 905, 906
305, 228, 227, 229, 883, 907, 846
306, 252, 259, 294, 704, 908, 809
307, 83, 84, 157, 93, 847, 664
308, 336, 154, 377, 782, 909, 910
309, 234, 238, 345, 879, 911, 912
310, 360, 185, 388, 913, 454, 867
311, 238, 312, 345, 914, 915, 911
312, 159, 114, 316, 916, 695, 917
313, 249, 251, 361, 681, 918, 524
314, 168, 199, 320, 919, 920, 921
315, 163, 146, 164, 750, 922, 902
316, 279, 337, 416, 923, 924, 925
317, 163, 165, 320, 904, 926, 886
318, 38, 150, 327, 927, 428, 928
319, 61, 62, 146, 71, 929, 877
320, 171, 172, 173, 930, 931, 817
321, 279, 280, 337, 486, 932, 923
322, 322, 345, 367, 786, 933, 934
323, 84, 85, 310, 94, 935, 848
324, 141, 106, 318, 936, 713, 937
325, 168, 170, 199, 781, 875, 919
326, 81, 82, 145, 91, 900, 767
327, 196, 198, 362, 673, 938, 478
328, 137, 294, 368, 796, 939, 940
329, 300, 301, 305, 941, 942, 943
330, 60, 61, 162, 70, 878, 627
331, 165, 166, 167, 944, 945, 873
332, 353, 176, 367, 946, 947, 597
333, 165, 168, 320, 874, 921, 926
334, 333, 160, 334, 948, 949, 950
335, 237, 236, 300, 761, 951, 952
336, 210, 211, 216, 851, 814, 953
337, 278, 279, 416, 707, 925, 529
338, 195, 223, 331, 954, 683, 955
339, 82, 83, 306, 92, 665, 901
340, 318, 107, 411, 712, 956, 895
341, 142, 327, 329, 957, 463, 560
342, 177, 179, 347, 686, 958, 587
343, 111, 112, 148, 132, 959, 960
344, 223, 224, 225, 961, 962, 884
345, 195, 221, 223, 963, 964, 954
346, 108, 109, 143, 129, 965, 966
347, 98, 99, 149, 119, 967, 968
348, 264, 293, 389, 890, 969, 970
349, 146, 62, 292, 929, 739, 971
350, 139, 102, 356, 972, 973, 517
351, 371, 143, 378, 747, 974, 659
352, 252, 250, 257, 700, 530, 858
353, 315, 324, 407, 612, 975, 976
354, 113, 114, 159, 134, 916, 977
355, 225, 226, 227, 978, 979, 882
356, 212, 200, 213, 980, 716, 981
357, 199, 209, 210, 876, 850, 982
358, 96, 97, 161, 117, 983, 984
359, 314, 325, 419, 852, 985, 607
360, 229, 230, 231, 986, 987, 856
361, 149, 99, 332, 967, 816, 988
362, 148, 112, 326, 959, 989, 990
363, 36, 37, 142, 53, 991, 992
364, 38, 39, 150, 55, 993, 927
365, 65, 160, 333, 994, 948, 995
366, 293, 110, 409, 731, 996, 997
367, 109, 110, 378, 130, 733, 998
368, 188, 187, 342, 651, 632, 826
369, 105, 106, 141, 126, 936, 999
370, 112, 113, 326, 133, 1000, 989
371, 181, 184, 341, 663, 833, 794
372, 202, 204, 206, 1001, 1002, 799
373, 258, 257, 272, 859, 1003, 714
374, 63, 64, 153, 73, 1004, 584
375, 305, 139, 392, 456, 583, 1005
376, 79, 80, 154, 89, 1006, 1007
377, 205, 246, 247, 720, 898, 1008
378, 206, 240, 263, 1009, 1010, 830
379, 97, 98, 324, 118, 1011, 1012
380, 113, 159, 326, 977, 1013, 1000
381, 103, 104, 151, 124, 1014, 1015
382, 295, 294, 412, 861, 798, 1016
383, 312, 311, 313, 1017, 464, 655
384, 98, 149, 324, 968, 1018, 1011
385, 216, 249, 329, 815, 523, 1019
386, 153, 64, 333, 1004, 1020, 555
387, 334, 335, 336, 1021, 1022, 1023
388, 161, 97, 324, 983, 1012, 611
389, 281, 215, 283, 605, 755, 1024
390, 165, 164, 166, 903, 1025, 944
391, 101, 102, 139, 122, 972, 455
392, 334, 160, 335, 949, 1026, 1021
393, 321, 328, 393, 666, 1027, 1028
394, 171, 169, 172, 834, 824, 930
395, 167, 195, 331, 1029, 955, 865
396, 236, 233, 302, 870, 792, 1030
397, 214, 213, 218, 1031, 711, 1032
398, 167, 166, 195, 945, 1033, 1029
399, 80, 81, 338, 90, 768, 1034
400, 104, 105, 330, 125, 1035, 1036
401, 300, 236, 301, 951, 1037, 941
402, 310, 315, 390, 534, 1038, 1039
403, 232, 234, 345, 807, 912, 785
404, 247, 261, 262, 899, 893, 1040
405, 64, 65, 333, 74, 995, 1020
406, 65, 66, 160, 75, 1041, 994
407, 248, 286, 359, 897, 1042, 1043
408, 154, 80, 338, 1006, 1034, 1044
409, 35, 295, 412, 1045, 1016, 1046
410, 175, 173, 176, 838, 1047, 1048
411, 223, 221, 224, 964, 1049, 961
412, 32, 33, 319, 49, 1050, 1051
413, 33, 34, 137, 50, 1052, 1053
414, 298, 264, 350, 837, 1054, 515
415, 219, 218, 260, 1055, 729, 1056
416, 350, 389, 400, 1057, 1058, 839
417, 302, 303, 381, 855, 1059, 1060
418, 311, 255, 388, 774, 1061, 465
419, 105, 141, 330, 999, 1062, 1035
420, 151, 104, 330, 1014, 1036, 1063
421, 259, 258, 376, 703, 493, 1064
422, 233, 231, 235, 885, 1065, 790
423, 253, 237, 300, 860, 952, 1066
424, 225, 224, 226, 962, 1067, 978
425, 183, 180, 185, 795, 442, 1068
426, 286, 288, 359, 728, 548, 1042
427, 293, 263, 378, 889, 660, 732
428, 274, 273, 395, 1069, 554, 488
429, 242, 244, 323, 1070, 601, 822
430, 229, 227, 230, 907, 1071, 986
431, 273, 216, 329, 1072, 1019, 462
432, 305, 301, 332, 942, 1073, 543
433, 256, 276, 386, 828, 1074, 1075
434, 30, 31, 152, 47, 1076, 1077
435, 193, 194, 366, 1078, 1079, 1080
436, 193, 191, 194, 821, 763, 1078
437, 140, 309, 385, 648, 1081, 1082
438, 32, 319, 339, 1051, 1083, 1084
439, 161, 310, 399, 532, 1085, 1086
440, 325, 322, 422, 709, 1087, 1088
441, 102, 103, 356, 123, 1089, 973
442, 37, 38, 327, 54, 928, 1090
443, 238, 311, 312, 881, 1017, 914
444, 289, 287, 290, 891, 460, 1091
445, 246, 248, 364, 689, 1092, 594
446, 39, 40, 328, 56, 1093, 1094
447, 217, 216, 273, 1095, 1072, 1096
448, 202, 197, 204, 853, 1097, 1001
449, 189, 200, 212, 789, 980, 802
450, 389, 293, 409, 969, 997, 1098
451, 28, 29, 138, 45, 1099, 1100
452, 296, 155, 382, 505, 1101, 835
453, 195, 220, 221, 1102, 1103, 963
454, 7, 8, 156, 17, 1104, 1105
455, 179, 182, 347, 829, 1106, 958
456, 339, 319, 344, 1083, 1107, 1108
457, 159, 316, 357, 917, 519, 1109
458, 8, 9, 346, 18, 1110, 1111
459, 40, 3, 393, 57, 1112, 1113
460, 164, 146, 292, 922, 971, 1114
461, 206, 204, 240, 1002, 1115, 1009
462, 175, 176, 353, 1048, 946, 1116
463, 276, 271, 420, 698, 1117, 1118
464, 321, 158, 406, 635, 546, 541
465, 9, 10, 147, 19, 1119, 1120
466, 320, 199, 365, 920, 1121, 481
467, 226, 266, 291, 1122, 1123, 1124
468, 372, 259, 376, 788, 1064, 1125
469, 183, 185, 360, 1068, 913, 1126
470, 280, 296, 337, 801, 758, 932
471, 205, 247, 362, 1008, 1127, 1128
472, 221, 220, 222, 1103, 1129, 1130
473, 141, 318, 343, 937, 872, 1131
474, 31, 32, 339, 48, 1084, 1132
475, 195, 166, 220, 1033, 1133, 1102
476, 224, 221, 355, 1049, 1134, 1135
477, 33, 137, 319, 1053, 1136, 1050
478, 271, 253, 392, 841, 1137, 582
479, 212, 213, 214, 981, 1031, 1138
480, 10, 11, 348, 20, 1139, 1140
481, 360, 270, 396, 866, 719, 535
482, 231, 230, 363, 987, 1141, 1142
483, 294, 259, 368, 908, 787, 939
484, 30, 152, 340, 1077, 466, 1143
485, 230, 369, 413, 1144, 1145, 1146
486, 226, 224, 266, 1067, 1147, 1122
487, 29, 30, 340, 46, 1143, 1148
488, 11, 12, 349, 21, 1149, 1150
489, 36, 142, 391, 992, 1151, 1152
490, 26, 27, 155, 43, 1153, 1154
491, 303, 235, 304, 854, 1155, 1156
492, 303, 304, 315, 1156, 1157, 1158
493, 187, 183, 360, 772, 1126, 470
494, 304, 235, 363, 1155, 1159, 905
495, 12, 13, 144, 22, 1160, 1161
496, 266, 224, 355, 1147, 1135, 1162
497, 79, 154, 383, 1007, 784, 1163
498, 210, 216, 217, 953, 1095, 1164
499, 156, 8, 346, 1104, 1111, 1165
500, 143, 323, 411, 746, 896, 1166
501, 300, 305, 392, 943, 1005, 1167
502, 325, 176, 419, 1168, 1169, 985
503, 244, 245, 343, 1170, 1171, 871
504, 214, 218, 219, 1032, 1055, 1172
505, 178, 175, 353, 808, 1116, 620
506, 13, 14, 351, 23, 1173, 1174
507, 221, 222, 355, 1130, 1175, 1134
508, 257, 317, 398, 531, 452, 1176
509, 110, 111, 409, 131, 1177, 996
510, 301, 236, 302, 1037, 1030, 1178
511, 9, 147, 346, 1120, 449, 1110
512, 245, 269, 343, 1179, 1180, 1171
513, 198, 205, 362, 738, 1128, 938
514, 230, 227, 369, 1071, 1181, 1144
515, 251, 295, 361, 862, 1182, 918
516, 260, 278, 401, 730, 845, 1183
517, 309, 351, 385, 550, 1184, 1081
518, 217, 273, 274, 1096, 1069, 1185
519, 3, 58, 393, 67, 1186, 1112
520, 245, 268, 269, 1187, 1188, 1179
521, 303, 315, 407, 1158, 976, 1189
522, 247, 297, 362, 1190, 459, 1127
523, 295, 35, 391, 1045, 1191, 1192
524, 166, 164, 354, 1025, 1193, 1194
525, 281, 283, 397, 1024, 614, 1195
526, 242, 243, 244, 1196, 1197, 1070
527, 240, 241, 242, 1198, 1199, 1200
528, 103, 151, 356, 1015, 1201, 1089
529, 34, 35, 412, 51, 1046, 1202
530, 268, 267, 277, 1203, 1204, 1205
531, 245, 243, 267, 1206, 1207, 1208
532, 289, 357, 373, 1209, 522, 1210
533, 5, 96, 399, 116, 1211, 1212
534, 25, 26, 352, 42, 1213, 1214
535, 147, 10, 348, 1119, 1140, 1215
536, 164, 292, 354, 1114, 566, 1193
537, 217, 274, 275, 1185, 1216, 1217
538, 235, 231, 363, 1065, 1142, 1159
539, 347, 182, 380, 1106, 480, 1218
540, 247, 262, 297, 1040, 500, 1190
541, 333, 334, 418, 950, 1219, 576
542, 197, 193, 366, 827, 1080, 1220
543, 345, 312, 367, 915, 598, 933
544, 220, 166, 354, 1133, 1194, 1221
545, 226, 291, 369, 1124, 559, 1222
546, 335, 160, 403, 1026, 1223, 574
547, 7, 156, 370, 1105, 441, 1224
548, 240, 204, 241, 1115, 1225, 1198
549, 142, 37, 327, 991, 1090, 957
550, 162, 163, 374, 751, 887, 633
551, 199, 210, 365, 982, 1226, 1121
552, 222, 220, 358, 1129, 1227, 1228
553, 348, 11, 349, 1139, 1150, 1229
554, 150, 39, 328, 993, 1094, 1230
555, 288, 289, 373, 892, 1210, 624
556, 66, 4, 403, 76, 1231, 1232
557, 4, 77, 403, 86, 575, 1231
558, 108, 143, 411, 966, 1166, 1233
559, 310, 85, 399, 935, 1234, 1085
560, 242, 241, 243, 1199, 1235, 1196
561, 326, 375, 400, 1236, 1237, 1238
562, 245, 267, 268, 1208, 1203, 1187
563, 2, 25, 140, 41, 1239, 1240
564, 12, 144, 349, 1161, 1241, 1149
565, 326, 159, 375, 1013, 1242, 1236
566, 244, 243, 245, 1197, 1206, 1170
567, 316, 115, 405, 694, 1243, 1244
568, 147, 348, 359, 1215, 1245, 547
569, 85, 5, 399, 95, 1212, 1234
570, 1, 6, 405, 15, 1246, 1247
571, 115, 1, 405, 136, 1247, 1243
572, 335, 78, 383, 503, 1248, 1249
573, 214, 219, 265, 1172, 1250, 1251
574, 176, 173, 419, 1047, 1252, 1169
575, 319, 137, 368, 1136, 940, 1253
576, 210, 217, 365, 1164, 1254, 1226
577, 28, 138, 382, 1100, 836, 1255
578, 58, 321, 393, 888, 1028, 1186
579, 144, 13, 351, 1160, 1174, 1256
580, 227, 226, 369, 979, 1222, 1181
581, 220, 354, 358, 1221, 813, 1227
582, 6, 7, 370, 16, 1224, 1257
583, 157, 310, 390, 849, 1039, 637
584, 337, 138, 416, 757, 1258, 924
585, 256, 386, 394, 1075, 1259, 639
586, 142, 361, 391, 561, 1260, 1151
587, 240, 242, 371, 1200, 823, 1261
588, 152, 31, 339, 1076, 1132, 1262
589, 27, 28, 382, 44, 1255, 1263
590, 369, 307, 413, 558, 1264, 1145
591, 176, 325, 422, 1168, 1088, 1265
592, 204, 197, 366, 1097, 1220, 1266
593, 217, 275, 365, 1217, 549, 1254
594, 381, 303, 407, 1059, 1189, 1267
595, 349, 144, 364, 1241, 1268, 1269
596, 334, 336, 410, 1023, 1270, 1271
597, 149, 332, 381, 988, 1272, 1273
598, 344, 319, 368, 1107, 1253, 602
599, 138, 29, 340, 1099, 1148, 1274
600, 338, 291, 408, 578, 1275, 1276
601, 332, 301, 381, 1073, 1277, 1272
602, 282, 285, 402, 647, 1278, 563
603, 272, 347, 380, 492, 1218, 715
604, 375, 290, 400, 1279, 840, 1237
605, 267, 243, 387, 1207, 1280, 1281
606, 143, 109, 378, 965, 998, 974
607, 366, 194, 387, 1079, 1282, 1283
608, 138, 340, 416, 1274, 468, 1258
609, 26, 155, 352, 1154, 1284, 1213
610, 263, 240, 371, 1010, 1261, 658
611, 341, 212, 379, 803, 1285, 771
612, 241, 204, 366, 1225, 1266, 1286
613, 156, 346, 373, 1165, 625, 521
614, 289, 290, 375, 1091, 1279, 1287
615, 155, 27, 382, 1153, 1263, 1101
616, 285, 352, 402, 592, 1288, 1278
617, 141, 343, 384, 1131, 1289, 1290
618, 351, 14, 385, 1173, 1291, 1184
619, 140, 25, 352, 1239, 1214, 591
620, 35, 36, 391, 52, 1152, 1191
621, 336, 335, 383, 1022, 1249, 783
622, 339, 344, 401, 1108, 1292, 1293
623, 14, 2, 385, 24, 1294, 1291
624, 291, 266, 408, 1123, 1295, 1275
625, 159, 357, 375, 1109, 1296, 1242
626, 330, 141, 384, 1062, 1290, 1297
627, 78, 79, 383, 88, 1163, 1248
628, 357, 289, 375, 1209, 1287, 1296
629, 307, 308, 413, 880, 1298, 1264
630, 248, 359, 421, 1043, 1299, 1300
631, 266, 355, 377, 1162, 1301, 1302
632, 219, 260, 372, 1056, 1303, 1304
633, 265, 219, 376, 1250, 1305, 540
634, 260, 344, 372, 1306, 604, 1303
635, 334, 410, 418, 1271, 1307, 1219
636, 343, 269, 384, 1180, 1308, 1289
637, 148, 389, 409, 1309, 1098, 1310
638, 255, 270, 388, 863, 868, 1061
639, 253, 300, 392, 1066, 1167, 1137
640, 2, 140, 385, 1240, 1082, 1294
641, 214, 265, 379, 1251, 446, 1311
642, 301, 302, 381, 1178, 1060, 1277
643, 277, 267, 417, 1204, 1312, 1313
644, 284, 281, 397, 696, 1195, 622
645, 322, 367, 422, 934, 1314, 1087
646, 148, 326, 400, 990, 1238, 1315
647, 342, 277, 417, 631, 1313, 1316
648, 194, 342, 417, 765, 1316, 1317
649, 107, 108, 411, 128, 1233, 956
650, 344, 260, 401, 1306, 1183, 1292
651, 212, 214, 379, 1138, 1311, 1285
652, 241, 366, 387, 1286, 1283, 1318
653, 324, 149, 407, 1018, 1319, 975
654, 219, 372, 376, 1304, 1125, 1305
655, 243, 241, 387, 1235, 1318, 1280
656, 315, 304, 390, 1157, 571, 1038
657, 267, 387, 417, 1281, 1320, 1312
658, 154, 338, 408, 1044, 1276, 1321
659, 359, 348, 421, 1245, 1322, 1299
660, 350, 264, 389, 1054, 970, 1057
661, 160, 66, 403, 1041, 1232, 1223
662, 328, 40, 393, 1093, 1113, 1027
663, 330, 384, 404, 1297, 1323, 1324
664, 262, 309, 414, 894, 649, 497
665, 361, 295, 391, 1182, 1192, 1260
666, 151, 330, 404, 1063, 1324, 1325
667, 384, 386, 404, 1326, 1327, 1323
668, 96, 161, 399, 984, 1086, 1211
669, 349, 364, 421, 1269, 1328, 1329
670, 377, 355, 410, 1301, 1330, 1331
671, 173, 172, 419, 931, 608, 1252
672, 269, 268, 394, 1188, 1332, 1333
673, 272, 257, 398, 1003, 1176, 693
674, 268, 277, 396, 1205, 536, 1334
675, 364, 144, 415, 1268, 1335, 629
676, 150, 328, 395, 1230, 667, 553
677, 387, 194, 417, 1282, 1317, 1320
678, 111, 148, 409, 960, 1310, 1177
679, 336, 377, 410, 910, 1331, 1270
680, 356, 151, 420, 1201, 1336, 1337
681, 386, 269, 394, 1338, 1333, 1259
682, 394, 268, 396, 1332, 1334, 640
683, 363, 230, 413, 1141, 1146, 1339
684, 384, 269, 386, 1308, 1338, 1326
685, 149, 381, 407, 1273, 1267, 1319
686, 275, 274, 406, 1216, 542, 545
687, 364, 248, 421, 1092, 1300, 1328
688, 152, 339, 401, 1262, 1293, 844
689, 410, 222, 418, 1340, 1341, 1307
690, 355, 222, 410, 1175, 1340, 1330
691, 389, 148, 400, 1309, 1315, 1058
692, 137, 34, 412, 1052, 1202, 797
693, 370, 316, 405, 520, 1244, 1342
694, 271, 356, 420, 518, 1337, 1117
695, 6, 370, 405, 1257, 1342, 1246
696, 222, 358, 418, 1228, 577, 1341
697, 377, 154, 408, 909, 1321, 1343
698, 352, 155, 402, 1284, 507, 1288
699, 308, 363, 413, 906, 1339, 1298
700, 348, 349, 421, 1229, 1329, 1322
701, 144, 351, 415, 1256, 552, 1335
702, 151, 404, 420, 1325, 1344, 1336
703, 266, 377, 408, 1302, 1343, 1295
704, 404, 276, 420, 1345, 1118, 1344
705, 367, 176, 422, 947, 1265, 1314
706, 386, 276, 404, 1074, 1345, 1327
*ELSET,ELSET=contact
1, 2, 3, 4, 5, 6, 7, 8, 9, 10, 
*ELSET,ELSET=surface
11, 12, 13, 14, 15, 16, 17, 18, 19, 20, 
21, 22, 23, 24, 25, 26, 27, 
*ELSET,ELSET=right
28, 29, 30, 31, 32, 33, 34, 35, 36, 37, 
*ELSET,ELSET=bottom
38, 39, 40, 41, 42, 43, 44, 45, 46, 47, 
*ELSET,ELSET=axis
48, 49, 50, 51, 52, 53, 54, 55, 56, 57, 
58, 59, 60, 61, 62, 63, 64, 65, 66, 67, 
68, 
*ELSET,ELSET=substrate
69, 70, 71, 72, 73, 74, 75, 76, 77, 78, 
79, 80, 81, 82, 83, 84, 85, 86, 87, 88, 
89, 90, 91, 92, 93, 94, 95, 96, 97, 98, 
99, 100, 101, 102, 103, 104, 105, 106, 107, 108, 
109, 110, 111, 112, 113, 114, 115, 116, 117, 118, 
119, 120, 121, 122, 123, 124, 125, 126, 127, 128, 
129, 130, 131, 132, 133, 134, 135, 136, 137, 138, 
139, 140, 141, 142, 143, 144, 145, 146, 147, 148, 
149, 150, 151, 152, 153, 154, 155, 156, 157, 158, 
159, 160, 161, 162, 163, 164, 165, 166, 167, 168, 
169, 170, 171, 172, 173, 174, 175, 176, 177, 178, 
179, 180, 181, 182, 183, 184, 185, 186, 187, 188, 
189, 190, 191, 192, 193, 194, 195, 196, 197, 198, 
199, 200, 201, 202, 203, 204, 205, 206, 207, 208, 
209, 210, 211, 212, 213, 214, 215, 216, 217, 218, 
219, 220, 221, 222, 223, 224, 225, 226, 227, 228, 
229, 230, 231, 232, 233, 234, 235, 236, 237, 238, 
239, 240, 241, 242, 243, 244, 245, 246, 247, 248, 
249, 250, 251, 252, 253, 254, 255, 256, 257, 258, 
259, 260, 261, 262, 263, 264, 265, 266, 267, 268, 
269, 270, 271, 272, 273, 274, 275, 276, 277, 278, 
279, 280, 281, 282, 283, 284, 285, 286, 287, 288, 
289, 290, 291, 292, 293, 294, 295, 296, 297, 298, 
299, 300, 301, 302, 303, 304, 305, 306, 307, 308, 
309, 310, 311, 312, 313, 314, 315, 316, 317, 318, 
319, 320, 321, 322, 323, 324, 325, 326, 327, 328, 
329, 330, 331, 332, 333, 334, 335, 336, 337, 338, 
339, 340, 341, 342, 343, 344, 345, 346, 347, 348, 
349, 350, 351, 352, 353, 354, 355, 356, 357, 358, 
359, 360, 361, 362, 363, 364, 365, 366, 367, 368, 
369, 370, 371, 372, 373, 374, 375, 376, 377, 378, 
379, 380, 381, 382, 383, 384, 385, 386, 387, 388, 
389, 390, 391, 392, 393, 394, 395, 396, 397, 398, 
399, 400, 401, 402, 403, 404, 405, 406, 407, 408, 
409, 410, 411, 412, 413, 414, 415, 416, 417, 418, 
419, 420, 421, 422, 423, 424, 425, 426, 427, 428, 
429, 430, 431, 432, 433, 434, 435, 436, 437, 438, 
439, 440, 441, 442, 443, 444, 445, 446, 447, 448, 
449, 450, 451, 452, 453, 454, 455, 456, 457, 458, 
459, 460, 461, 462, 463, 464, 465, 466, 467, 468, 
469, 470, 471, 472, 473, 474, 475, 476, 477, 478, 
479, 480, 481, 482, 483, 484, 485, 486, 487, 488, 
489, 490, 491, 492, 493, 494, 495, 496, 497, 498, 
499, 500, 501, 502, 503, 504, 505, 506, 507, 508, 
509, 510, 511, 512, 513, 514, 515, 516, 517, 518, 
519, 520, 521, 522, 523, 524, 525, 526, 527, 528, 
529, 530, 531, 532, 533, 534, 535, 536, 537, 538, 
539, 540, 541, 542, 543, 544, 545, 546, 547, 548, 
549, 550, 551, 552, 553, 554, 555, 556, 557, 558, 
559, 560, 561, 562, 563, 564, 565, 566, 567, 568, 
569, 570, 571, 572, 573, 574, 575, 576, 577, 578, 
579, 580, 581, 582, 583, 584, 585, 586, 587, 588, 
589, 590, 591, 592, 593, 594, 595, 596, 597, 598, 
599, 600, 601, 602, 603, 604, 605, 606, 607, 608, 
609, 610, 611, 612, 613, 614, 615, 616, 617, 618, 
619, 620, 621, 622, 623, 624, 625, 626, 627, 628, 
629, 630, 631, 632, 633, 634, 635, 636, 637, 638, 
639, 640, 641, 642, 643, 644, 645, 646, 647, 648, 
649, 650, 651, 652, 653, 654, 655, 656, 657, 658, 
659, 660, 661, 662, 663, 664, 665, 666, 667, 668, 
669, 670, 671, 672, 673, 674, 675, 676, 677, 678, 
679, 680, 681, 682, 683, 684, 685, 686, 687, 688, 
689, 690, 691, 692, 693, 694, 695, 696, 697, 698, 
699, 700, 701, 702, 703, 704, 705, 706, 
