 cone_master.inp
*NODE
1, 0, 0, 0
2, 100, 0, 0
3, 200, 0, 0
4, 500, 0, 0
5, 500, -500, 0
6, 0, -500, 0
7, 19.999999999914, 0, 0
8, 39.99999999984, 0, 0
9, 59.999999999807, 0, 0
10, 79.999999999891, 0, 0
11, 118.92071394945, 0, 0
12, 141.4213581444, 0, 0
13, 168.17928726569, 0, 0
14, 236.73861908198, 0, 0
15, 277.9763204027, 0, 0
16, 324.26407335868, 0, 0
17, 376.22031511877, 0, 0
18, 434.53923300787, 0, 0
19, 500, -71.428571428539, 0
20, 500, -142.85714285698, 0
21, 500, -214.28571428558, 0
22, 500, -285.71428571421, 0
23, 500, -357.1428571428, 0
24, 500, -428.5714285714, 0
25, 428.57142857143, -500, 0
26, 357.14285714287, -500, 0
27, 285.7142857143, -500, 0
28, 214.2857142857, -500, 0
29, 142.85714285713, -500, 0
30, 71.428571428567, -500, 0
31, 0, -427.26581603827, 0
32, 0, -362.46703066277, 0
33, 0, -304.7378589082, 0
34, 0, -253.30701849505, 0
35, 0, -207.48735339009, 0
36, 0, -166.66667163527, 0
37, 0, -130.29957891173, 0
38, 0, -97.900175774162, 0
39, 0, -69.035594780576, 0
40, 0, -43.320176807127, 0
41, 0, -20.410343823363, 0
42, 218.70019579075, -28.178183606803, 0
43, 129.14283319435, -18.428490222222, 0
44, 37.466288710284, -231.71292355825, 0
45, 441.65980941657, -248.79761685149, 0
46, 25.261024264841, -118.70262210892, 0
47, 55.519227859807, -333.11215426479, 0
48, 295.87364434428, -37.291592296488, 0
49, 245.63105547504, -440.28397898018, 0
50, 71.585391272355, -16.280444512148, 0
51, 20.312707431269, -54.309241691755, 0
52, 436.275407281, -103.33581937664, 0
53, 443.58343851543, -388.89708809673, 0
54, 104.97729533734, -433.49904490183, 0
55, 29.999999999877, -17.32050807562, 0
56, 402.54690703684, -47.195095958632, 0
57, 440.30180536804, -178.82022205046, 0
58, 384.28190967315, -215.224462121, 0
59, 385.79191048839, -282.31347152325, 0
60, 330.39600639634, -247.75627296202, 0
61, 328.82637522129, -185.72688595854, 0
62, 279.385059198, -213.49769950846, 0
63, 273.31294492084, -280.10508975567, 0
64, 227.74213301895, -238.65723952299, 0
65, 230.16113170955, -185.04408953711, 0
66, 184.70186692379, -208.96395048199, 0
67, 185.74675509156, -160.39552285961, 0
68, 178.83477545674, -259.13184505991, 0
69, 225.72178614894, -129.71266262854, 0
70, 145.00179264341, -181.91686955258, 0
71, 146.31215775435, -138.78262613254, 0
72, 109.3568896002, -156.68554536742, 0
73, 113.20189288213, -117.62196456412, 0
74, 144.82722193461, -100.53747900411, 0
75, 114.09707092856, -83.414052165984, 0
76, 84.6859079553, -97.250859114516, 0
77, 86.893615841322, -65.845832900136, 0
78, 141.66559549506, -67.263055719787, 0
79, 173.09638368064, -80.784715287218, 0
80, 104.71343961842, -199.61101585184, 0
81, 74.298070260184, -170.64360534039, 0
82, 60.002366270029, -77.996141447803, 0
83, 165.49358299061, -48.667485229016, 0
84, 63.181909999691, -51.512833649974, 0
85, 114.00808206236, -54.118997220389, 0
86, 379.85911379111, -150.73638906783, 0
87, 322.22119032453, -129.60298290577, 0
88, 80.481800465449, -132.07075430849, 0
89, 276.38122599829, -158.57860644985, 0
90, 270.88032440183, -109.12563017175, 0
91, 233.69251796711, -85.781461041482, 0
92, 442.79224584183, -319.08036720272, 0
93, 386.55651944197, -351.47620982754, 0
94, 178.10636505187, -438.80131711023, 0
95, 147.72676756244, -379.03835574444, 0
96, 209.94832266813, -381.44678099076, 0
97, 271.87789754456, -382.3302954543, 0
98, 177.13766930788, -320.04356714336, 0
99, 114.92445856214, -327.85725455806, 0
100, 386.66002783464, -429.22056160732, 0
101, 50.945374291573, -396.1195959874, 0
102, 28.599257087226, -83.918979996662, 0
103, 331.82179258478, -312.11563785491, 0
104, 48.393775087554, -143.46705763564, 0
105, 239.45935656736, -329.41962350169, 0
106, 346.00566057741, -43.131447762349, 0
107, 367.07327889351, -91.99530614967, 0
108, 88.709005388434, -35.288751484507, 0
109, 42.374449298144, -278.57841595172, 0
110, 86.041839615854, -245.23362583973, 0
111, 254.99271758671, -31.219906120444, 0
112, 154.61931316684, -21.386162512505, 0
113, 179.80375370713, -117.45311759482, 0
114, 106.94454921922, -16.696116272667, 0
115, 35.55494121056, -182.56878572888, 0
116, 138.19906859734, -228.89934560397, 0
117, 129.90069732585, -278.5387668378, 0
118, 49.999999999824, -17.320508075637, 0
119, 40.325365274397, -37.615688539195, 0
120, 54.846370296829, -107.9884187686, 0
121, 201.76725371868, -59.495112972329, 0
122, 89.447789175979, -13.653062453865, 0
123, 313.64776070373, -439.35266015732, 0
124, 311.02035359765, -80.22892215168, 0
125, 16.338911764546, -31.865260315245, 0
126, 266.57378294215, -66.630296014789, 0
127, 184.45313002936, -23.368008691704, 0
128, 85.001132787627, -292.06714105143, 0
129, 136.71683073659, -40.444705497543, 0
130, 68.567146036934, -209.52618126251, 0
131, 42.484321212522, -61.070577065078, 0
132, 50.012887725729, -449.5909725842, 0
133, 95.284920086223, -370.56436686216, 0
134, 455.16754734246, -44.708002463129, 0
135, 447.71065660221, -447.7106566022, 0
136, 219.29737585435, -285.47147299672, 0
137, 329.40753386488, -377.10731656748, 0
138, 20.597313307542, -148.44210646891, 0
139, 235.14529360108, -54.260991951169, 0
140, 14.569180546129, -14.682490457312, 0
141, 60.978399867387, -31.417278460087, 0
142, 203.11821763271, -94.505699656893, 0
143, 115.10426012019, -32.995412139466, 0
144, 286.43160067851, -334.52900203424, 0
******* E L E M E N T S *************
*ELEMENT, type=CAX3, ELSET=Line1
1, 1, 7
2, 7, 8
3, 8, 9
4, 9, 10
5, 10, 2
*ELEMENT, type=CAX3, ELSET=Line2
6, 2, 11
7, 11, 12
8, 12, 13
9, 13, 3
*ELEMENT, type=CAX3, ELSET=Line3
10, 3, 14
11, 14, 15
12, 15, 16
13, 16, 17
14, 17, 18
15, 18, 4
*ELEMENT, type=CAX3, ELSET=Line4
16, 4, 19
17, 19, 20
18, 20, 21
19, 21, 22
20, 22, 23
21, 23, 24
22, 24, 5
*ELEMENT, type=CAX3, ELSET=Line5
23, 5, 25
24, 25, 26
25, 26, 27
26, 27, 28
27, 28, 29
28, 29, 30
29, 30, 6
*ELEMENT, type=CAX3, ELSET=Line6
30, 6, 31
31, 31, 32
32, 32, 33
33, 33, 34
34, 34, 35
35, 35, 36
36, 36, 37
37, 37, 38
38, 38, 39
39, 39, 40
40, 40, 41
41, 41, 1
*ELEMENT, type=CAX6, ELSET=Surface1
42, 102, 82, 120
43, 110, 80, 116
44, 68, 98, 117
45, 46, 102, 120
46, 25, 26, 100
47, 98, 99, 117
48, 110, 116, 117
49, 58, 61, 86
50, 108, 114, 143
51, 86, 61, 87
52, 56, 52, 107
53, 72, 81, 88
54, 106, 107, 124
55, 52, 57, 86
56, 77, 84, 108
57, 121, 83, 127
58, 78, 75, 85
59, 108, 84, 141
60, 88, 81, 104
61, 25, 100, 135
62, 114, 108, 122
63, 52, 86, 107
64, 82, 102, 131
65, 57, 58, 86
66, 59, 93, 103
67, 65, 69, 89
68, 59, 92, 93
69, 69, 113, 142
70, 23, 53, 92
71, 119, 51, 125
72, 74, 73, 75
73, 52, 20, 57
74, 99, 47, 128
75, 87, 89, 90
76, 75, 76, 77
77, 71, 72, 73
78, 67, 70, 71
79, 104, 46, 120
80, 50, 108, 141
81, 77, 82, 84
82, 62, 65, 89
83, 92, 53, 93
84, 89, 69, 90
85, 90, 69, 91
86, 87, 61, 89
87, 96, 95, 98
88, 42, 121, 127
89, 75, 77, 85
90, 65, 66, 67
91, 94, 95, 96
92, 74, 75, 78
93, 94, 54, 95
94, 91, 69, 142
95, 71, 73, 74
96, 47, 99, 133
97, 63, 60, 103
98, 80, 110, 130
99, 75, 73, 76
100, 60, 59, 103
101, 57, 45, 58
102, 67, 66, 70
103, 69, 67, 113
104, 71, 70, 72
105, 71, 74, 113
106, 48, 124, 126
107, 88, 104, 120
108, 22, 23, 92
109, 77, 76, 82
110, 29, 54, 94
111, 26, 27, 123
112, 74, 79, 113
113, 61, 62, 89
114, 111, 48, 126
115, 100, 26, 123
116, 62, 64, 65
117, 98, 95, 99
118, 58, 60, 61
119, 65, 67, 69
120, 97, 96, 105
121, 65, 64, 66
122, 107, 87, 124
123, 85, 77, 108
124, 21, 45, 57
125, 78, 85, 129
126, 106, 56, 107
127, 19, 20, 52
128, 61, 60, 62
129, 17, 56, 106
130, 49, 94, 96
131, 104, 115, 138
132, 48, 106, 124
133, 73, 72, 88
134, 54, 101, 133
135, 51, 119, 131
136, 58, 59, 60
137, 29, 30, 54
138, 85, 108, 143
139, 86, 87, 107
140, 21, 22, 45
141, 32, 47, 101
142, 32, 33, 47
143, 104, 81, 115
144, 20, 21, 57
145, 58, 45, 59
146, 87, 90, 124
147, 39, 40, 51
148, 49, 28, 94
149, 31, 32, 101
150, 96, 98, 105
151, 72, 80, 81
152, 15, 48, 111
153, 37, 38, 46
154, 49, 96, 97
155, 47, 33, 109
156, 62, 63, 64
157, 17, 18, 56
158, 116, 68, 117
159, 67, 71, 113
160, 45, 22, 92
161, 93, 53, 100
162, 28, 29, 94
163, 15, 16, 48
164, 39, 51, 102
165, 38, 39, 102
166, 46, 38, 102
167, 34, 35, 44
168, 33, 34, 109
169, 95, 54, 133
170, 27, 28, 49
171, 103, 137, 144
172, 52, 56, 134
173, 35, 36, 115
174, 79, 78, 83
175, 98, 68, 136
176, 108, 50, 122
177, 34, 44, 109
178, 23, 24, 53
179, 112, 83, 129
180, 51, 40, 125
181, 83, 78, 129
182, 109, 44, 110
183, 44, 35, 115
184, 62, 60, 63
185, 3, 14, 42
186, 102, 51, 131
187, 6, 31, 132
188, 66, 64, 68
189, 16, 17, 106
190, 66, 68, 116
191, 27, 49, 123
192, 72, 70, 80
193, 76, 73, 88
194, 14, 15, 111
195, 46, 104, 138
196, 115, 36, 138
197, 101, 47, 133
198, 11, 12, 43
199, 12, 13, 112
200, 59, 45, 92
201, 55, 119, 125
202, 74, 78, 79
203, 7, 8, 55
204, 103, 93, 137
205, 8, 9, 118
206, 18, 4, 134
207, 9, 10, 50
208, 82, 76, 120
209, 112, 13, 127
210, 97, 105, 144
211, 76, 88, 120
212, 3, 42, 127
213, 101, 54, 132
214, 115, 81, 130
215, 83, 112, 127
216, 44, 115, 130
217, 40, 41, 125
218, 119, 84, 131
219, 124, 90, 126
220, 47, 109, 128
221, 19, 52, 134
222, 70, 66, 116
223, 10, 2, 122
224, 63, 103, 144
225, 100, 53, 135
226, 30, 6, 132
227, 24, 5, 135
228, 5, 25, 135
229, 105, 98, 136
230, 79, 83, 121
231, 63, 105, 136
232, 37, 46, 138
233, 48, 16, 106
234, 105, 63, 144
235, 13, 3, 127
236, 55, 8, 118
237, 4, 19, 134
238, 49, 97, 123
239, 64, 63, 136
240, 90, 91, 126
241, 9, 50, 118
242, 80, 70, 116
243, 84, 82, 131
244, 41, 1, 140
245, 137, 97, 144
246, 1, 7, 140
247, 129, 85, 143
248, 55, 118, 119
249, 2, 11, 114
250, 42, 14, 111
251, 54, 30, 132
252, 110, 117, 128
253, 50, 10, 122
254, 110, 44, 130
255, 11, 43, 114
256, 99, 95, 133
257, 36, 37, 138
258, 93, 100, 137
259, 109, 110, 128
260, 81, 80, 130
261, 2, 114, 122
262, 43, 12, 112
263, 31, 101, 132
264, 113, 79, 142
265, 53, 24, 135
266, 117, 99, 128
267, 56, 18, 134
268, 43, 112, 129
269, 119, 118, 141
270, 84, 119, 141
271, 68, 64, 136
272, 100, 123, 137
273, 7, 55, 140
274, 125, 41, 140
275, 42, 111, 139
276, 123, 97, 137
277, 79, 121, 142
278, 55, 125, 140
279, 118, 50, 141
280, 43, 129, 143
281, 121, 42, 139
282, 111, 126, 139
283, 121, 91, 142
284, 91, 121, 139
285, 126, 91, 139
286, 114, 43, 143
*ELSET,ELSET=contact
1, 2, 3, 4, 5, 
*ELSET,ELSET=surface
6, 7, 8, 9, 10, 11, 12, 13, 14, 15, 
*ELSET,ELSET=right
16, 17, 18, 19, 20, 21, 22, 
*ELSET,ELSET=bottom
23, 24, 25, 26, 27, 28, 29, 
*ELSET,ELSET=axis
30, 31, 32, 33, 34, 35, 36, 37, 38, 39, 
40, 41, 
*ELSET,ELSET=substrate
42, 43, 44, 45, 46, 47, 48, 49, 50, 51, 
52, 53, 54, 55, 56, 57, 58, 59, 60, 61, 
62, 63, 64, 65, 66, 67, 68, 69, 70, 71, 
72, 73, 74, 75, 76, 77, 78, 79, 80, 81, 
82, 83, 84, 85, 86, 87, 88, 89, 90, 91, 
92, 93, 94, 95, 96, 97, 98, 99, 100, 101, 
102, 103, 104, 105, 106, 107, 108, 109, 110, 111, 
112, 113, 114, 115, 116, 117, 118, 119, 120, 121, 
122, 123, 124, 125, 126, 127, 128, 129, 130, 131, 
132, 133, 134, 135, 136, 137, 138, 139, 140, 141, 
142, 143, 144, 145, 146, 147, 148, 149, 150, 151, 
152, 153, 154, 155, 156, 157, 158, 159, 160, 161, 
162, 163, 164, 165, 166, 167, 168, 169, 170, 171, 
172, 173, 174, 175, 176, 177, 178, 179, 180, 181, 
182, 183, 184, 185, 186, 187, 188, 189, 190, 191, 
192, 193, 194, 195, 196, 197, 198, 199, 200, 201, 
202, 203, 204, 205, 206, 207, 208, 209, 210, 211, 
212, 213, 214, 215, 216, 217, 218, 219, 220, 221, 
222, 223, 224, 225, 226, 227, 228, 229, 230, 231, 
232, 233, 234, 235, 236, 237, 238, 239, 240, 241, 
242, 243, 244, 245, 246, 247, 248, 249, 250, 251, 
252, 253, 254, 255, 256, 257, 258, 259, 260, 261, 
262, 263, 264, 265, 266, 267, 268, 269, 270, 271, 
272, 273, 274, 275, 276, 277, 278, 279, 280, 281, 
282, 283, 284, 285, 286, 
