** Fe16Cr0 v18 — restart from end of Step 1
** Run: ccx indentation_fe16cr00_v18_restart
** Mesh, materials, contact, and BCs are read from the .rin file.
** Only steps 2–11 are defined here.

*RESTART, READ

*STEP, NLGEOM, INC=5000, UNSYM
*STATIC
1e-5, 0.1, 1e-12, 0.0008
*BOUNDARY
nset_ind_top, 2, 2, -0.20200
*NODE PRINT, NSET=nset_ind_top, TOTALS=YES, FREQUENCY=10
U, RF
*NODE FILE, FREQUENCY=10
U
*EL FILE, FREQUENCY=10
S, E
*RESTART, WRITE, OVERLAY
*END STEP

*STEP, NLGEOM, INC=5000, UNSYM
*STATIC
1e-5, 0.1, 1e-12, 0.0008
*BOUNDARY
nset_ind_top, 2, 2, -0.30300
*NODE PRINT, NSET=nset_ind_top, TOTALS=YES, FREQUENCY=10
U, RF
*NODE FILE, FREQUENCY=10
U
*EL FILE, FREQUENCY=10
S, E
*RESTART, WRITE, OVERLAY
*END STEP

*STEP, NLGEOM, INC=5000, UNSYM
*STATIC
1e-5, 0.1, 1e-12, 0.0008
*BOUNDARY
nset_ind_top, 2, 2, -0.40400
*NODE PRINT, NSET=nset_ind_top, TOTALS=YES, FREQUENCY=10
U, RF
*NODE FILE, FREQUENCY=10
U
*EL FILE, FREQUENCY=10
S, E
*RESTART, WRITE, OVERLAY
*END STEP

*STEP, NLGEOM, INC=5000, UNSYM
*STATIC
1e-5, 0.1, 1e-12, 0.0007
*BOUNDARY
nset_ind_top, 2, 2, -0.50500
*NODE PRINT, NSET=nset_ind_top, TOTALS=YES, FREQUENCY=10
U, RF
*NODE FILE, FREQUENCY=10
U
*EL FILE, FREQUENCY=10
S, E
*RESTART, WRITE, OVERLAY
*END STEP

*STEP, NLGEOM, INC=5000, UNSYM
*STATIC
1e-5, 0.1, 1e-12, 0.0007
*BOUNDARY
nset_ind_top, 2, 2, -0.60600
*NODE PRINT, NSET=nset_ind_top, TOTALS=YES, FREQUENCY=10
U, RF
*NODE FILE, FREQUENCY=10
U
*EL FILE, FREQUENCY=10
S, E
*RESTART, WRITE, OVERLAY
*END STEP

*STEP, NLGEOM, INC=5000, UNSYM
*STATIC
1e-5, 0.1, 1e-12, 0.0005
*BOUNDARY
nset_ind_top, 2, 2, -0.70700
*NODE PRINT, NSET=nset_ind_top, TOTALS=YES, FREQUENCY=10
U, RF
*NODE FILE, FREQUENCY=10
U
*EL FILE, FREQUENCY=10
S, E
*RESTART, WRITE, OVERLAY
*END STEP

*STEP, NLGEOM, INC=5000, UNSYM
*STATIC
1e-5, 0.1, 1e-12, 0.0005
*BOUNDARY
nset_ind_top, 2, 2, -0.80800
*NODE PRINT, NSET=nset_ind_top, TOTALS=YES, FREQUENCY=10
U, RF
*NODE FILE, FREQUENCY=10
U
*EL FILE, FREQUENCY=10
S, E
*RESTART, WRITE, OVERLAY
*END STEP

*STEP, NLGEOM, INC=5000, UNSYM
*STATIC
1e-5, 0.1, 1e-12, 0.0002
*BOUNDARY
nset_ind_top, 2, 2, -0.90900
*NODE PRINT, NSET=nset_ind_top, TOTALS=YES, FREQUENCY=10
U, RF
*NODE FILE, FREQUENCY=10
U
*EL FILE, FREQUENCY=10
S, E
*RESTART, WRITE, OVERLAY
*END STEP

*STEP, NLGEOM, INC=5000, UNSYM
*STATIC
1e-5, 0.1, 1e-12, 0.0001
*BOUNDARY
nset_ind_top, 2, 2, -1.01000
*NODE PRINT, NSET=nset_ind_top, TOTALS=YES, FREQUENCY=10
U, RF
*NODE FILE, FREQUENCY=10
U
*EL FILE, FREQUENCY=10
S, E
*RESTART, WRITE, OVERLAY
*END STEP

** ============================================================
** STEP 11 — UNLOADING (90% unload for Oliver-Pharr)
** ============================================================
*STEP, NLGEOM, INC=5000, UNSYM
*STATIC
1e-5, 0.1, 1e-12, 0.0001
*BOUNDARY
nset_ind_top, 2, 2, -0.16000
*NODE PRINT, NSET=nset_ind_top, TOTALS=YES, FREQUENCY=10
U, RF
*NODE FILE, FREQUENCY=10
U
*EL FILE, FREQUENCY=10
S, E
*RESTART, WRITE, OVERLAY
*END STEP
